 vasp.6.3.2 27Jun22 (build Aug 12 2022 00:53:59) complex

 executed on               tv2STD date 2024.11.30  15:56:16

 INCAR:
   SYSTEM = Pt-fcc
   NWRITE = 2    write-flag
   ISTART = 0    job   : 0-new, 1-cont, 2-samecut
   ICHARG = 2    charge: 0-wave, 1-file, 2-atom, >10-const
   INIWAV = 1    electr: 0-lowe 1-rand  2-diag
   ENCUT = 425.0     energy cutoff in eV
   PREC = accurate      normal | accurate
   ADDGRID = .FALSE.  (use fine grid)
   NELM = 100     number of ELM steps
   EDIFF = 1E-06    energy stopping-criterion for ELM
   LREAL = .FALSE.      real-space projection (.FALSE., .TRUE., On, Auto)
   ALGO = Normal     Normal, Fast, Very_Fast
   LWAVE = .FALSE.
   LCHARG = .FALSE.
   NSW = 0       max number of geometry steps
   IBRION = -1     ionic relax: 0-MD, 1-quasi-Newton, 2-CG, 3-Damped MD
   EDIFFG = -0.02  force (eV/A) stopping-criterion for geometry steps
   ISIF = 2     (1:force\=y stress\=trace only ions\=y shape\=n volume\=n)
   ISYM = 1     (1-use symmetry, 0-no symmetry)
   ISMEAR = 0     (-1-Fermi, 1-Methfessel/Paxton)
   SIGMA = 0.05   broadening in eV

 POTCAR:    PAW_PBE Pt_pv 12Dec2005
 POTCAR:    PAW_PBE Pt_pv 12Dec2005
   VRHFIN =Pt: 5ps1d9

   TITEL  = PAW_PBE Pt_pv 12Dec2005
   POMASS =  195.080; ZVAL   =   16.000    mass and valenz
   ENMAX  =  294.607; ENMIN  =  220.955 eV

  PAW_PBE Pt_pv 12Dec2005               :

 POSCAR: Pt
  positions in cartesian coordinates
 exchange correlation table for  LEXCH =        8
   RHO(1)=    0.500       N(1)  =     2000
   RHO(2)=  100.500       N(2)  =     4000

 ion  position               nearest neighbor table
   1  0.000  0.000  0.000-

  LATTYP: Found a face centered cubic cell.
 ALAT       =     3.9400000000

  Lattice vectors:

 A1 = (   0.0000000000,   1.9700000000,   1.9700000000)
 A2 = (   1.9700000000,   0.0000000000,   1.9700000000)
 A3 = (   1.9700000000,   1.9700000000,   0.0000000000)

Analysis of symmetry for initial positions (statically):
 Subroutine PRICEL returns:
 Original cell was already a primitive cell.

 Routine SETGRP: Setting up the symmetry group for a
 face centered cubic supercell.

 Subroutine GETGRP returns: Found 48 space group operations
 (whereof 48 operations were pure point group operations)
 out of a pool of 48 trial point group operations.

The static configuration has the point symmetry O_h .

Analysis of symmetry for dynamics (positions and initial velocities):
 Subroutine PRICEL returns:
 Original cell was already a primitive cell.

 Routine SETGRP: Setting up the symmetry group for a
 face centered cubic supercell.

 Subroutine GETGRP returns: Found 48 space group operations
 (whereof 48 operations were pure point group operations)
 out of a pool of 48 trial point group operations.

The dynamic configuration has the point symmetry O_h .

 Subroutine INISYM returns: Found 48 space group operations
 (whereof 48 operations are pure point group operations),
 and found     1 'primitive' translations

                                     Primitive cell

  volume of cell :      15.2907

  direct lattice vectors                    reciprocal lattice vectors
     0.000000000  1.970000000  1.970000000    -0.253807107  0.253807107  0.253807107
     1.970000000  0.000000000  1.970000000     0.253807107 -0.253807107  0.253807107
     1.970000000  1.970000000  0.000000000     0.253807107  0.253807107 -0.253807107

  length of vectors
     2.786000718  2.786000718  2.786000718     0.439606804  0.439606804  0.439606804

  position of ions in fractional coordinates (direct lattice)
     0.000000000  0.000000000  0.000000000

  ion indices of the primitive-cell ions
   primitive index   ion index
                 1           1

 KPOINTS: Automatic mesh

Automatic generation of k-mesh.
 Grid dimensions read from file:
 generate k-points for:   12   12   12

 Generating k-lattice:

  Cartesian coordinates                     Fractional coordinates (reciprocal lattice)
    -0.021150592  0.021150592  0.021150592     0.083333333  0.000000000  0.000000000
     0.021150592 -0.021150592  0.021150592     0.000000000  0.083333333  0.000000000
     0.021150592  0.021150592 -0.021150592     0.000000000  0.000000000  0.083333333

  Length of vectors
     0.036633900  0.036633900  0.036633900

  Shift w.r.t. Gamma in fractional coordinates (k-lattice)
     0.500000000  0.500000000  0.500000000

 Subroutine IBZKPT returns following result:

 Found    182 irreducible k-points:

 Following reciprocal coordinates:
            Coordinates               Weight
  0.041667  0.041667  0.041667      8.000000
  0.125000  0.041667  0.041667     24.000000
  0.208333  0.041667  0.041667     24.000000
  0.291667  0.041667  0.041667     24.000000
  0.375000  0.041667  0.041667     24.000000
  0.458333  0.041667  0.041667     24.000000
 -0.458333  0.041667  0.041667     24.000000
 -0.375000  0.041667  0.041667     24.000000
 -0.291667  0.041667  0.041667     24.000000
 -0.208333  0.041667  0.041667     24.000000
 -0.125000  0.041667  0.041667     24.000000
 -0.041667  0.041667  0.041667     24.000000
  0.125000  0.125000  0.041667     24.000000
  0.208333  0.125000  0.041667     48.000000
  0.291667  0.125000  0.041667     48.000000
  0.375000  0.125000  0.041667     48.000000
  0.458333  0.125000  0.041667     48.000000
 -0.458333  0.125000  0.041667     48.000000
 -0.375000  0.125000  0.041667     48.000000
 -0.291667  0.125000  0.041667     48.000000
 -0.208333  0.125000  0.041667     48.000000
 -0.125000  0.125000  0.041667     48.000000
 -0.041667  0.125000  0.041667     48.000000
  0.208333  0.208333  0.041667     24.000000
  0.291667  0.208333  0.041667     48.000000
  0.375000  0.208333  0.041667     48.000000
  0.458333  0.208333  0.041667     48.000000
 -0.458333  0.208333  0.041667     48.000000
 -0.375000  0.208333  0.041667     48.000000
 -0.291667  0.208333  0.041667     48.000000
 -0.208333  0.208333  0.041667     48.000000
 -0.125000  0.208333  0.041667     48.000000
 -0.041667  0.208333  0.041667     48.000000
  0.291667  0.291667  0.041667     24.000000
  0.375000  0.291667  0.041667     48.000000
  0.458333  0.291667  0.041667     48.000000
 -0.458333  0.291667  0.041667     48.000000
 -0.375000  0.291667  0.041667     48.000000
 -0.291667  0.291667  0.041667     48.000000
 -0.208333  0.291667  0.041667     48.000000
 -0.125000  0.291667  0.041667     48.000000
 -0.041667  0.291667  0.041667     48.000000
  0.375000  0.375000  0.041667     24.000000
  0.458333  0.375000  0.041667     48.000000
 -0.458333  0.375000  0.041667     48.000000
 -0.375000  0.375000  0.041667     48.000000
 -0.291667  0.375000  0.041667     48.000000
 -0.208333  0.375000  0.041667     48.000000
 -0.125000  0.375000  0.041667     48.000000
 -0.041667  0.375000  0.041667     48.000000
  0.458333  0.458333  0.041667     24.000000
 -0.458333  0.458333  0.041667     48.000000
 -0.375000  0.458333  0.041667     48.000000
 -0.291667  0.458333  0.041667     48.000000
 -0.208333  0.458333  0.041667     48.000000
 -0.125000  0.458333  0.041667     48.000000
 -0.041667  0.458333  0.041667     48.000000
 -0.458333 -0.458333  0.041667     24.000000
 -0.375000 -0.458333  0.041667     48.000000
 -0.291667 -0.458333  0.041667     48.000000
[...]
 -0.375000  0.458333  0.291667     48.000000
 -0.291667  0.458333  0.291667     48.000000
 -0.458333 -0.458333  0.291667     24.000000
 -0.375000 -0.458333  0.291667     48.000000
 -0.375000 -0.375000  0.291667     24.000000
  0.375000  0.375000  0.375000      8.000000
  0.458333  0.375000  0.375000     24.000000
 -0.458333  0.375000  0.375000     24.000000
 -0.375000  0.375000  0.375000     24.000000
  0.458333  0.458333  0.375000     24.000000
 -0.458333  0.458333  0.375000     48.000000
 -0.375000  0.458333  0.375000     48.000000
 -0.458333 -0.458333  0.375000     24.000000
  0.458333  0.458333  0.458333      8.000000
 -0.458333  0.458333  0.458333     24.000000

 Following cartesian coordinates:
            Coordinates               Weight
  0.010575  0.010575  0.010575      8.000000
 -0.010575  0.031726  0.031726     24.000000
 -0.031726  0.052876  0.052876     24.000000
 -0.052876  0.074027  0.074027     24.000000
 -0.074027  0.095178  0.095178     24.000000
 -0.095178  0.116328  0.116328     24.000000
  0.137479 -0.116328 -0.116328     24.000000
  0.116328 -0.095178 -0.095178     24.000000
  0.095178 -0.074027 -0.074027     24.000000
  0.074027 -0.052876 -0.052876     24.000000
  0.052876 -0.031726 -0.031726     24.000000
  0.031726 -0.010575 -0.010575     24.000000
  0.010575  0.010575  0.052876     24.000000
 -0.010575  0.031726  0.074027     48.000000
 -0.031726  0.052876  0.095178     48.000000
 -0.052876  0.074027  0.116328     48.000000
 -0.074027  0.095178  0.137479     48.000000
  0.158629 -0.137479 -0.095178     48.000000
  0.137479 -0.116328 -0.074027     48.000000
  0.116328 -0.095178 -0.052876     48.000000
  0.095178 -0.074027 -0.031726     48.000000
  0.074027 -0.052876 -0.010575     48.000000
  0.052876 -0.031726  0.010575     48.000000
  0.010575  0.010575  0.095178     24.000000
 -0.010575  0.031726  0.116328     48.000000
 -0.031726  0.052876  0.137479     48.000000
 -0.052876  0.074027  0.158629     48.000000
  0.179780 -0.158629 -0.074027     48.000000
  0.158629 -0.137479 -0.052876     48.000000
  0.137479 -0.116328 -0.031726     48.000000
  0.116328 -0.095178 -0.010575     48.000000
  0.095178 -0.074027  0.010575     48.000000
  0.074027 -0.052876  0.031726     48.000000
  0.010575  0.010575  0.137479     24.000000
 -0.010575  0.031726  0.158629     48.000000
 -0.031726  0.052876  0.179780     48.000000
  0.200931 -0.179780 -0.052876     48.000000
  0.179780 -0.158629 -0.031726     48.000000
  0.158629 -0.137479 -0.010575     48.000000
  0.137479 -0.116328  0.010575     48.000000
  0.116328 -0.095178  0.031726     48.000000
  0.095178 -0.074027  0.052876     48.000000
  0.010575  0.010575  0.179780     24.000000
 -0.010575  0.031726  0.200931     48.000000
  0.222081 -0.200931 -0.031726     48.000000
  0.200931 -0.179780 -0.010575     48.000000
  0.179780 -0.158629  0.010575     48.000000
  0.158629 -0.137479  0.031726     48.000000
  0.137479 -0.116328  0.052876     48.000000
  0.116328 -0.095178  0.074027     48.000000
  0.010575  0.010575  0.222081     24.000000
  0.243232 -0.222081 -0.010575     48.000000
  0.222081 -0.200931  0.010575     48.000000
  0.200931 -0.179780  0.031726     48.000000
  0.179780 -0.158629  0.052876     48.000000
  0.158629 -0.137479  0.074027     48.000000
  0.137479 -0.116328  0.095178     48.000000
  0.010575  0.010575 -0.243232     24.000000
 -0.010575  0.031726 -0.222081     48.000000
 -0.031726  0.052876 -0.200931     48.000000
[...]
  0.285533 -0.137479 -0.052876     48.000000
  0.264382 -0.116328 -0.031726     48.000000
  0.074027  0.074027 -0.306684     24.000000
  0.052876  0.095178 -0.285533     48.000000
  0.074027  0.074027 -0.264382     24.000000
  0.095178  0.095178  0.095178      8.000000
  0.074027  0.116328  0.116328     24.000000
  0.306684 -0.116328 -0.116328     24.000000
  0.285533 -0.095178 -0.095178     24.000000
  0.095178  0.095178  0.137479     24.000000
  0.327834 -0.137479 -0.095178     48.000000
[...]
   0.37500000  0.04166667  0.04166667       0.003
   0.45833333  0.04166667  0.04166667       0.003
  -0.45833333  0.04166667  0.04166667       0.003
  -0.37500000  0.04166667  0.04166667       0.003
  -0.29166667  0.04166667  0.04166667       0.003
  -0.20833333  0.04166667  0.04166667       0.003
  -0.12500000  0.04166667  0.04166667       0.003
  -0.04166667  0.04166667  0.04166667       0.003
   0.12500000  0.12500000  0.04166667       0.003
   0.20833333  0.12500000  0.04166667       0.007
   0.29166667  0.12500000  0.04166667       0.007
   0.37500000  0.12500000  0.04166667       0.007
   0.45833333  0.12500000  0.04166667       0.007
  -0.45833333  0.12500000  0.04166667       0.007
  -0.37500000  0.12500000  0.04166667       0.007
  -0.29166667  0.12500000  0.04166667       0.007
  -0.20833333  0.12500000  0.04166667       0.007
  -0.12500000  0.12500000  0.04166667       0.007
  -0.04166667  0.12500000  0.04166667       0.007
   0.20833333  0.20833333  0.04166667       0.003
   0.29166667  0.20833333  0.04166667       0.007
   0.37500000  0.20833333  0.04166667       0.007
   0.45833333  0.20833333  0.04166667       0.007
  -0.45833333  0.20833333  0.04166667       0.007
  -0.37500000  0.20833333  0.04166667       0.007
  -0.29166667  0.20833333  0.04166667       0.007
  -0.20833333  0.20833333  0.04166667       0.007
  -0.12500000  0.20833333  0.04166667       0.007
  -0.04166667  0.20833333  0.04166667       0.007
   0.29166667  0.29166667  0.04166667       0.003
   0.37500000  0.29166667  0.04166667       0.007
   0.45833333  0.29166667  0.04166667       0.007
  -0.45833333  0.29166667  0.04166667       0.007
  -0.37500000  0.29166667  0.04166667       0.007
  -0.29166667  0.29166667  0.04166667       0.007
  -0.20833333  0.29166667  0.04166667       0.007
  -0.12500000  0.29166667  0.04166667       0.007
  -0.04166667  0.29166667  0.04166667       0.007
   0.37500000  0.37500000  0.04166667       0.003
   0.45833333  0.37500000  0.04166667       0.007
  -0.45833333  0.37500000  0.04166667       0.007
  -0.37500000  0.37500000  0.04166667       0.007
  -0.29166667  0.37500000  0.04166667       0.007
  -0.20833333  0.37500000  0.04166667       0.007
  -0.12500000  0.37500000  0.04166667       0.007
  -0.04166667  0.37500000  0.04166667       0.007
   0.45833333  0.45833333  0.04166667       0.003
  -0.45833333  0.45833333  0.04166667       0.007
  -0.37500000  0.45833333  0.04166667       0.007
  -0.29166667  0.45833333  0.04166667       0.007
  -0.20833333  0.45833333  0.04166667       0.007
  -0.12500000  0.45833333  0.04166667       0.007
  -0.04166667  0.45833333  0.04166667       0.007
  -0.45833333 -0.45833333  0.04166667       0.003
  -0.37500000 -0.45833333  0.04166667       0.007
  -0.29166667 -0.45833333  0.04166667       0.007
[...]
  -0.37500000  0.45833333  0.29166667       0.007
  -0.29166667  0.45833333  0.29166667       0.007
  -0.45833333 -0.45833333  0.29166667       0.003
  -0.37500000 -0.45833333  0.29166667       0.007
  -0.37500000 -0.37500000  0.29166667       0.003
   0.37500000  0.37500000  0.37500000       0.001
   0.45833333  0.37500000  0.37500000       0.003
  -0.45833333  0.37500000  0.37500000       0.003
  -0.37500000  0.37500000  0.37500000       0.003
   0.45833333  0.45833333  0.37500000       0.003
  -0.45833333  0.45833333  0.37500000       0.007
  -0.37500000  0.45833333  0.37500000       0.007
  -0.45833333 -0.45833333  0.37500000       0.003
   0.45833333  0.45833333  0.45833333       0.001
  -0.45833333  0.45833333  0.45833333       0.003

 position of ions in fractional coordinates (direct lattice)
   0.00000000  0.00000000  0.00000000

 position of ions in cartesian coordinates  (Angst):
   0.00000000  0.00000000  0.00000000

 k-point   1 :   0.0417 0.0417 0.0417  plane waves:     316
 k-point   2 :   0.1250 0.0417 0.0417  plane waves:     313
 k-point   3 :   0.2083 0.0417 0.0417  plane waves:     309
 k-point   4 :   0.2917 0.0417 0.0417  plane waves:     303
 k-point   5 :   0.3750 0.0417 0.0417  plane waves:     304
 k-point   6 :   0.4583 0.0417 0.0417  plane waves:     303
 k-point   7 :  -0.4583 0.0417 0.0417  plane waves:     303
 k-point   8 :  -0.3750 0.0417 0.0417  plane waves:     302
 k-point   9 :  -0.2917 0.0417 0.0417  plane waves:     303
 k-point  10 :  -0.2083 0.0417 0.0417  plane waves:     307
 k-point  11 :  -0.1250 0.0417 0.0417  plane waves:     310
 k-point  12 :  -0.0417 0.0417 0.0417  plane waves:     312
 k-point  13 :   0.1250 0.1250 0.0417  plane waves:     307
 k-point  14 :   0.2083 0.1250 0.0417  plane waves:     307
 k-point  15 :   0.2917 0.1250 0.0417  plane waves:     305
 k-point  16 :   0.3750 0.1250 0.0417  plane waves:     301
 k-point  17 :   0.4583 0.1250 0.0417  plane waves:     306
 k-point  18 :  -0.4583 0.1250 0.0417  plane waves:     302
 k-point  19 :  -0.3750 0.1250 0.0417  plane waves:     303
 k-point  20 :  -0.2917 0.1250 0.0417  plane waves:     303
 k-point  21 :  -0.2083 0.1250 0.0417  plane waves:     304
 k-point  22 :  -0.1250 0.1250 0.0417  plane waves:     309
 k-point  23 :  -0.0417 0.1250 0.0417  plane waves:     309
 k-point  24 :   0.2083 0.2083 0.0417  plane waves:     303
 k-point  25 :   0.2917 0.2083 0.0417  plane waves:     303
 k-point  26 :   0.3750 0.2083 0.0417  plane waves:     305
 k-point  27 :   0.4583 0.2083 0.0417  plane waves:     307
 k-point  28 :  -0.4583 0.2083 0.0417  plane waves:     303
 k-point  29 :  -0.3750 0.2083 0.0417  plane waves:     301
 k-point  30 :  -0.2917 0.2083 0.0417  plane waves:     305
 k-point  31 :  -0.2083 0.2083 0.0417  plane waves:     305
 k-point  32 :  -0.1250 0.2083 0.0417  plane waves:     305
 k-point  33 :  -0.0417 0.2083 0.0417  plane waves:     307
 k-point  34 :   0.2917 0.2917 0.0417  plane waves:     307
 k-point  35 :   0.3750 0.2917 0.0417  plane waves:     308
 k-point  36 :   0.4583 0.2917 0.0417  plane waves:     308
 k-point  37 :  -0.4583 0.2917 0.0417  plane waves:     302
 k-point  38 :  -0.3750 0.2917 0.0417  plane waves:     301
 k-point  39 :  -0.2917 0.2917 0.0417  plane waves:     301
 k-point  40 :  -0.2083 0.2917 0.0417  plane waves:     306
 k-point  41 :  -0.1250 0.2917 0.0417  plane waves:     305
 k-point  42 :  -0.0417 0.2917 0.0417  plane waves:     301
 k-point  43 :   0.3750 0.3750 0.0417  plane waves:     312
 k-point  44 :   0.4583 0.3750 0.0417  plane waves:     311
 k-point  45 :  -0.4583 0.3750 0.0417  plane waves:     305
 k-point  46 :  -0.3750 0.3750 0.0417  plane waves:     298
 k-point  47 :  -0.2917 0.3750 0.0417  plane waves:     298
 k-point  48 :  -0.2083 0.3750 0.0417  plane waves:     301
 k-point  49 :  -0.1250 0.3750 0.0417  plane waves:     305
 k-point  50 :  -0.0417 0.3750 0.0417  plane waves:     302
 k-point  51 :   0.4583 0.4583 0.0417  plane waves:     308
 k-point  52 :  -0.4583 0.4583 0.0417  plane waves:     307
 k-point  53 :  -0.3750 0.4583 0.0417  plane waves:     304
 k-point  54 :  -0.2917 0.4583 0.0417  plane waves:     301
 k-point  55 :  -0.2083 0.4583 0.0417  plane waves:     303
 k-point  56 :  -0.1250 0.4583 0.0417  plane waves:     303
 k-point  57 :  -0.0417 0.4583 0.0417  plane waves:     303
 k-point  58 :  -0.4583-0.4583 0.0417  plane waves:     302
 k-point  59 :  -0.3750-0.4583 0.0417  plane waves:     307
 k-point  60 :  -0.2917-0.4583 0.0417  plane waves:     306
[...]
 k-point 168 :  -0.3750 0.4583 0.2917  plane waves:     300
 k-point 169 :  -0.2917 0.4583 0.2917  plane waves:     300
 k-point 170 :  -0.4583-0.4583 0.2917  plane waves:     302
 k-point 171 :  -0.3750-0.4583 0.2917  plane waves:     299
 k-point 172 :  -0.3750-0.3750 0.2917  plane waves:     298
 k-point 173 :   0.3750 0.3750 0.3750  plane waves:     302
 k-point 174 :   0.4583 0.3750 0.3750  plane waves:     305
 k-point 175 :  -0.4583 0.3750 0.3750  plane waves:     301
 k-point 176 :  -0.3750 0.3750 0.3750  plane waves:     299
 k-point 177 :   0.4583 0.4583 0.3750  plane waves:     305
 k-point 178 :  -0.4583 0.4583 0.3750  plane waves:     303
 k-point 179 :  -0.3750 0.4583 0.3750  plane waves:     304
 k-point 180 :  -0.4583-0.4583 0.3750  plane waves:     303
 k-point 181 :   0.4583 0.4583 0.4583  plane waves:     302
 k-point 182 :  -0.4583 0.4583 0.4583  plane waves:     306

 maximum and minimum number of plane-waves per node :       316      295

 maximum number of plane-waves:       316
 maximum index in each direction:
   IXMAX=    5   IYMAX=    5   IZMAX=    4
   IXMIN=   -5   IYMIN=   -5   IZMIN=   -5

 serial   3D FFT for wavefunctions
 parallel 3D FFT for charge:
    minimum data exchange during FFTs selected (reduces bandwidth)

 Broyden mixing: mesh for mixing (old mesh)
   NGX =  9   NGY =  9   NGZ =  9
  (NGX  = 40   NGY  = 40   NGZ  = 40)
  gives a total of    729 points

 initial charge density was supplied:
 charge density of overlapping atoms calculated
 number of electron      16.0000000 magnetization
 keeping initial charge density in first step

 Maximum index for augmentation-charges          868 (set IRDMAX)

 First call to EWALD:  gamma=   0.714
 Maximum number of real-space cells 3x 3x 3
 Maximum number of reciprocal cells 3x 3x 3

--------------------------------------- Iteration      1(   1)  ---------------------------------------

 eigenvalue-minimisations  :  9768
 total energy-change (2. order) : 0.1731239E+02  (-0.1164553E+04)
 number of electron      16.0000000 magnetization
 augmentation part       16.0000000 magnetization

 Free energy of the ion-electron system (eV)
  alpha Z        PSCENC =       156.91311333
  Ewald energy   TEWEN  =     -2144.84590610
  -Hartree energ DENC   =      -397.82488157
  -exchange      EXHF   =         0.00000000
  -V(xc)+E(xc)   XCENC  =        63.81680431
  PAW double counting   =      2065.75261637    -2030.83594803
  entropy T*S    EENTRO =        -0.00082265
  eigenvalues    EBANDS =      -123.85759644
  atomic energy  EATOM  =      2428.19501064
  Solvation  Ediel_sol  =         0.00000000
  free energy    TOTEN  =        17.31238988 eV

  energy without entropy =       17.31321253  energy(sigma->0) =       17.31280120

[...]

 eigenvalue-minimisations  : 11880
 total energy-change (2. order) :-0.2370932E+02  (-0.2346859E+02)
 number of electron      16.0000000 magnetization
 augmentation part       16.0000000 magnetization

[...]

 Broyden mixing:
  rms(total) = 0.14934E+01    rms(broyden)= 0.14933E+01
  rms(prec ) = 0.20500E+01
  weight for this iteration     100.00

[...]

 eigenvalues of (default mixing * dielectric matrix)
  average eigenvalue GAMMA=   1.4494
  1.4494

[...]

 eigenvalue-minimisations  : 11808
 total energy-change (2. order) :-0.5725785E-05  (-0.4926755E-06)
 number of electron      16.0000003 magnetization
 augmentation part        4.1121213 magnetization

 Broyden mixing:
  rms(total) = 0.57574E-03    rms(broyden)= 0.57551E-03
  rms(prec ) = 0.58114E-03
  weight for this iteration     100.00

 eigenvalues of (default mixing * dielectric matrix)
  average eigenvalue GAMMA=   1.7528
  2.6708  2.3394  0.9912  1.2097  1.5527

[...]

--------------------------------------- Iteration      1(  11)  ---------------------------------------

 eigenvalue-minimisations  :  6048
 total energy-change (2. order) : 0.6538858E-07  (-0.5355883E-09)
 number of electron      16.0000003 magnetization
 augmentation part        4.1121213 magnetization

 Free energy of the ion-electron system (eV)
  alpha Z        PSCENC =       156.91311333
  Ewald energy   TEWEN  =     -2144.84590610
  -Hartree energ DENC   =      -378.43962458
  -exchange      EXHF   =         0.00000000
  -V(xc)+E(xc)   XCENC  =        62.95859572
  PAW double counting   =      2350.93317488    -2318.68245070
  entropy T*S    EENTRO =        -0.00266161
  eigenvalues    EBANDS =      -163.10512079
  atomic energy  EATOM  =      2428.19501064
  Solvation  Ediel_sol  =         0.00000000
  free energy    TOTEN  =        -6.07586921 eV

  energy without entropy =       -6.07320760  energy(sigma->0) =       -6.07453841

 average (electrostatic) potential at core
  the test charge radii are     0.9952
  (the norm of the test charge is              1.0000)
       1 -88.9709

 E-fermi :  11.7783     XC(G=0): -13.9159     alpha+bet :-17.1560

 Fermi energy:        11.7783297267

 k-point     1 :       0.0417    0.0417    0.0417
  band No.  band energies     occupation
      1     -40.7129      2.00000
      2     -40.7068      2.00000
      3     -40.7068      2.00000
      4       1.7658      2.00000
      5       8.0444      2.00000
      6       8.1030      2.00000
      7       8.1030      2.00000
      8      10.1768      2.00000
      9      10.1768      2.00000
     10      26.5485      0.00000
     11      30.9304      0.00000
     12      31.4309      0.00000
     13      31.4309      0.00000
     14      37.0747      0.00000
     15      42.3813      0.00000
     16      42.9739      0.00000
     17      42.9739      0.00000
     18      45.9831      0.00000
     19      45.9831      0.00000
     20      46.6998      0.00000
     21      52.4950      0.00000
     22      52.7936      0.00000
     23      52.7936      0.00000
     24      59.8218      0.00000

[...]

 k-point   182 :      -0.4583    0.4583    0.4583
  band No.  band energies     occupation
      1     -41.1412      2.00000
      2     -40.7922      2.00000
      3     -40.7751      2.00000
      4       4.8080      2.00000
      5       7.8483      2.00000
      6       8.1911      2.00000
      7      10.1317      2.00000
      8      11.7391      1.73253
      9      13.2578      0.00000
     10      17.4994      0.00000
     11      26.3820      0.00000
     12      29.8217      0.00000
     13      30.5669      0.00000
     14      39.4159      0.00000
     15      39.6798      0.00000
     16      41.7979      0.00000
     17      46.4321      0.00000
     18      47.0239      0.00000
     19      47.1381      0.00000
     20      52.5059      0.00000
     21      53.3062      0.00000
     22      53.8586      0.00000
     23      57.3315      0.00000
     24      57.8168      0.00000

 soft charge-density along one line, spin component           1
         0         1         2         3         4         5         6         7         8         9
 total charge-density along one line

------------------------ aborting loop because EDIFF is reached ----------------------------------------

  FORCE on cell =-STRESS in cart. coord.  units (eV):
  Direction    XX          YY          ZZ          XY          YZ          ZX
  Alpha Z   156.91311   156.91311   156.91311
  Ewald    -714.94866  -714.94866  -714.94866    -0.00000     0.00000     0.00000
  Hartree   126.14597   126.14597   126.14597     0.00000     0.00000     0.00000
  E(xc)     -85.52717   -85.52717   -85.52717     0.00000     0.00000     0.00000
  Local     125.01898   125.01898   125.01898     0.00000     0.00000     0.00000
  n-local   -29.86279   -27.14335   -32.66448     3.19785    -2.98701     0.06157
  augment    73.33036    73.33036    73.33036     0.00000     0.00000     0.00000
  Kinetic   348.49848   353.46940   345.92034     4.32967    -3.72562    -0.00142
  Fock        0.00000     0.00000     0.00000     0.00000     0.00000     0.00000
  Total       0.33845     0.33845     0.33845    -0.00000     0.00000     0.00000
  in kB      35.46325    35.46325    35.46325    -0.00000     0.00000     0.00000

 VOLUME and BASIS-vectors are now :
  energy-cutoff  :      425.00
  volume of cell :       15.29
      direct lattice vectors                 reciprocal lattice vectors
     0.000000000  1.970000000  1.970000000    -0.253807107  0.253807107  0.253807107
     1.970000000  0.000000000  1.970000000     0.253807107 -0.253807107  0.253807107
     1.970000000  1.970000000  0.000000000     0.253807107  0.253807107 -0.253807107

  length of vectors
     2.786000718  2.786000718  2.786000718     0.439606804  0.439606804  0.439606804

 FORCES acting on ions
    electron-ion (+dipol)            ewald-force                    non-local-force                 convergence-correction
   -.599E-14 -.627E-14 -.598E-16   -.456E-14 -.897E-14 -.116E-13   -.258E-25 -.258E-25 -.258E-25   -.272E-13 -.890E-13 -.453E-13
   -.599E-14 -.627E-14 -.598E-16   -.456E-14 -.897E-14 -.116E-13   -.258E-25 -.258E-25 -.258E-25   -.272E-13 -.890E-13 -.453E-13

 POSITION                                       TOTAL-FORCE (eV/Angst)
      0.00000      0.00000      0.00000         0.000000      0.000000     -0.000000
    total drift:                               -0.000000     -0.000000     -0.000000

  FREE ENERGIE OF THE ION-ELECTRON SYSTEM (eV)
  free  energy   TOTEN  =        -6.07586921 eV

  energy  without entropy=       -6.07320760  energy(sigma->0) =       -6.07453841