 vasp.6.3.2 27Jun22 (build Aug 12 2022 00:53:59) complex

 executed on               tv2STD date 2024.11.30  15:15:03

 INCAR:
   SYSTEM = Co-fcc
   NWRITE = 2    write-flag
   ISTART = 0    job   : 0-new, 1-cont, 2-samecut
   ICHARG = 2    charge: 0-wave, 1-file, 2-atom, >10-const
   INIWAV = 1    electr: 0-lowe 1-rand  2-diag
   ENCUT = 400.0     energy cutoff in eV
   PREC = Accurate      normal | accurate
   ADDGRID = .FALSE.  (use fine grid)
   NELM = 100     number of ELM steps
   EDIFF = 1E-06    energy stopping-criterion for ELM
   LREAL = .FALSE.      real-space projection (.FALSE., .TRUE., On, Auto)
   ALGO = Normal     Normal, Fast, Very_Fast
   LWAVE = .FALSE.
   LCHARG = .FALSE.
   NSW = 0       max number of geometry steps
   IBRION = -1     ionic relax: 0-MD, 1-quasi-Newton, 2-CG, 3-Damped MD
   EDIFFG = -0.02  force (eV/A) stopping-criterion for geometry steps
   ISIF = 2     (1:force\=y stress\=trace only ions\=y shape\=n volume\=n)
   ISYM = 1     (1-use symmetry, 0-no symmetry)
   ISMEAR = 0     (-1-Fermi, 1-Methfessel/Paxton)
   SIGMA = 0.05   broadening in eV
   NPAR = 4
   ISPIN = 2
   MAGMOM = 1*3

 POTCAR:    PAW_PBE Co 02Aug2007
 POTCAR:    PAW_PBE Co 02Aug2007
   VRHFIN =Co: d8 s1

   TITEL  = PAW_PBE Co 02Aug2007
   POMASS =   58.933; ZVAL   =    9.000    mass and valenz
   ENMAX  =  267.968; ENMIN  =  200.976 eV

  PAW_PBE Co 02Aug2007                  :

 POSCAR: Co
  positions in cartesian coordinates
 exchange correlation table for  LEXCH =        8
   RHO(1)=    0.500       N(1)  =     2000
   RHO(2)=  100.500       N(2)  =     4000

 ion  position               nearest neighbor table
   1  0.000  0.000  0.000-

  LATTYP: Found a face centered cubic cell.
 ALAT       =     3.5100000000

  Lattice vectors:

 A1 = (   0.0000000000,   1.7550000000,   1.7550000000)
 A2 = (   1.7550000000,   0.0000000000,   1.7550000000)
 A3 = (   1.7550000000,   1.7550000000,   0.0000000000)

Analysis of symmetry for initial positions (statically):
 Subroutine PRICEL returns:
 Original cell was already a primitive cell.

 Routine SETGRP: Setting up the symmetry group for a
 face centered cubic supercell.

 Subroutine GETGRP returns: Found 48 space group operations
 (whereof 48 operations were pure point group operations)
 out of a pool of 48 trial point group operations.

The static configuration has the point symmetry O_h .

Analysis of symmetry for dynamics (positions and initial velocities):
 Subroutine PRICEL returns:
 Original cell was already a primitive cell.

[...]

The dynamic configuration has the point symmetry O_h .

Analysis of structural, dynamic, and magnetic symmetry:
 Subroutine PRICEL returns:
 Original cell was already a primitive cell.

 Routine SETGRP: Setting up the symmetry group for a
 face centered cubic supercell.

 Subroutine GETGRP returns: Found 48 space group operations
 (whereof 48 operations were pure point group operations)
 out of a pool of 48 trial point group operations.

The overall configuration has the point symmetry O_h .

 Subroutine INISYM returns: Found 48 space group operations
 (whereof 48 operations are pure point group operations),
 and found     1 'primitive' translations

                                     Primitive cell

  volume of cell :      10.8109

  direct lattice vectors                    reciprocal lattice vectors
     0.000000000  1.755000000  1.755000000    -0.284900285  0.284900285  0.284900285
     1.755000000  0.000000000  1.755000000     0.284900285 -0.284900285  0.284900285
     1.755000000  1.755000000  0.000000000     0.284900285  0.284900285 -0.284900285

  length of vectors
     2.481944802  2.481944802  2.481944802     0.493461769  0.493461769  0.493461769

  position of ions in fractional coordinates (direct lattice)
     0.000000000  0.000000000  0.000000000

  ion indices of the primitive-cell ions
   primitive index   ion index
                 1           1

 KPOINTS: Automatic mesh

Automatic generation of k-mesh.
 Grid dimensions read from file:
 generate k-points for:   12   12   12

 Generating k-lattice:

  Cartesian coordinates                     Fractional coordinates (reciprocal lattice)
    -0.023741690  0.023741690  0.023741690     0.083333333  0.000000000  0.000000000
     0.023741690 -0.023741690  0.023741690     0.000000000  0.083333333  0.000000000
     0.023741690  0.023741690 -0.023741690     0.000000000  0.000000000  0.083333333

  Length of vectors
     0.041121814  0.041121814  0.041121814

  Shift w.r.t. Gamma in fractional coordinates (k-lattice)
     0.500000000  0.500000000  0.500000000

 Subroutine IBZKPT returns following result:

 Found    182 irreducible k-points:

 Following reciprocal coordinates:
            Coordinates               Weight
  0.041667  0.041667  0.041667      8.000000
  0.125000  0.041667  0.041667     24.000000
  0.208333  0.041667  0.041667     24.000000
  0.291667  0.041667  0.041667     24.000000
  0.375000  0.041667  0.041667     24.000000
  0.458333  0.041667  0.041667     24.000000
 -0.458333  0.041667  0.041667     24.000000
 -0.375000  0.041667  0.041667     24.000000
 -0.291667  0.041667  0.041667     24.000000
 -0.208333  0.041667  0.041667     24.000000
 -0.125000  0.041667  0.041667     24.000000
 -0.041667  0.041667  0.041667     24.000000
  0.125000  0.125000  0.041667     24.000000
  0.208333  0.125000  0.041667     48.000000
  0.291667  0.125000  0.041667     48.000000
  0.375000  0.125000  0.041667     48.000000
  0.458333  0.125000  0.041667     48.000000
 -0.458333  0.125000  0.041667     48.000000
 -0.375000  0.125000  0.041667     48.000000
 -0.291667  0.125000  0.041667     48.000000
 -0.208333  0.125000  0.041667     48.000000
 -0.125000  0.125000  0.041667     48.000000
 -0.041667  0.125000  0.041667     48.000000
  0.208333  0.208333  0.041667     24.000000
  0.291667  0.208333  0.041667     48.000000
  0.375000  0.208333  0.041667     48.000000
  0.458333  0.208333  0.041667     48.000000
 -0.458333  0.208333  0.041667     48.000000
 -0.375000  0.208333  0.041667     48.000000
 -0.291667  0.208333  0.041667     48.000000
 -0.208333  0.208333  0.041667     48.000000
 -0.125000  0.208333  0.041667     48.000000
 -0.041667  0.208333  0.041667     48.000000
  0.291667  0.291667  0.041667     24.000000
  0.375000  0.291667  0.041667     48.000000
  0.458333  0.291667  0.041667     48.000000
 -0.458333  0.291667  0.041667     48.000000
 -0.375000  0.291667  0.041667     48.000000
 -0.291667  0.291667  0.041667     48.000000
 -0.208333  0.291667  0.041667     48.000000
 -0.125000  0.291667  0.041667     48.000000
 -0.041667  0.291667  0.041667     48.000000
  0.375000  0.375000  0.041667     24.000000
  0.458333  0.375000  0.041667     48.000000
 -0.458333  0.375000  0.041667     48.000000
 -0.375000  0.375000  0.041667     48.000000
 -0.291667  0.375000  0.041667     48.000000
 -0.208333  0.375000  0.041667     48.000000
 -0.125000  0.375000  0.041667     48.000000
 -0.041667  0.375000  0.041667     48.000000
  0.458333  0.458333  0.041667     24.000000
 -0.458333  0.458333  0.041667     48.000000
 -0.375000  0.458333  0.041667     48.000000
 -0.291667  0.458333  0.041667     48.000000
 -0.208333  0.458333  0.041667     48.000000
 -0.125000  0.458333  0.041667     48.000000
 -0.041667  0.458333  0.041667     48.000000
 -0.458333 -0.458333  0.041667     24.000000
 -0.375000 -0.458333  0.041667     48.000000
 -0.291667 -0.458333  0.041667     48.000000
[...]
 -0.375000  0.458333  0.291667     48.000000
 -0.291667  0.458333  0.291667     48.000000
 -0.458333 -0.458333  0.291667     24.000000
 -0.375000 -0.458333  0.291667     48.000000
 -0.375000 -0.375000  0.291667     24.000000
  0.375000  0.375000  0.375000      8.000000
  0.458333  0.375000  0.375000     24.000000
 -0.458333  0.375000  0.375000     24.000000
 -0.375000  0.375000  0.375000     24.000000
  0.458333  0.458333  0.375000     24.000000
 -0.458333  0.458333  0.375000     48.000000
 -0.375000  0.458333  0.375000     48.000000
 -0.458333 -0.458333  0.375000     24.000000
  0.458333  0.458333  0.458333      8.000000
 -0.458333  0.458333  0.458333     24.000000

 Following cartesian coordinates:
            Coordinates               Weight
  0.011871  0.011871  0.011871      8.000000
 -0.011871  0.035613  0.035613     24.000000
 -0.035613  0.059354  0.059354     24.000000
 -0.059354  0.083096  0.083096     24.000000
 -0.083096  0.106838  0.106838     24.000000
 -0.106838  0.130579  0.130579     24.000000
  0.154321 -0.130579 -0.130579     24.000000
  0.130579 -0.106838 -0.106838     24.000000
  0.106838 -0.083096 -0.083096     24.000000
  0.083096 -0.059354 -0.059354     24.000000
  0.059354 -0.035613 -0.035613     24.000000
  0.035613 -0.011871 -0.011871     24.000000
  0.011871  0.011871  0.059354     24.000000
 -0.011871  0.035613  0.083096     48.000000
 -0.035613  0.059354  0.106838     48.000000
 -0.059354  0.083096  0.130579     48.000000
 -0.083096  0.106838  0.154321     48.000000
  0.178063 -0.154321 -0.106838     48.000000
  0.154321 -0.130579 -0.083096     48.000000
  0.130579 -0.106838 -0.059354     48.000000
  0.106838 -0.083096 -0.035613     48.000000
  0.083096 -0.059354 -0.011871     48.000000
  0.059354 -0.035613  0.011871     48.000000
  0.011871  0.011871  0.106838     24.000000
 -0.011871  0.035613  0.130579     48.000000
 -0.035613  0.059354  0.154321     48.000000
 -0.059354  0.083096  0.178063     48.000000
  0.201804 -0.178063 -0.083096     48.000000
  0.178063 -0.154321 -0.059354     48.000000
  0.154321 -0.130579 -0.035613     48.000000
  0.130579 -0.106838 -0.011871     48.000000
  0.106838 -0.083096  0.011871     48.000000
  0.083096 -0.059354  0.035613     48.000000
  0.011871  0.011871  0.154321     24.000000
 -0.011871  0.035613  0.178063     48.000000
 -0.035613  0.059354  0.201804     48.000000
  0.225546 -0.201804 -0.059354     48.000000
  0.201804 -0.178063 -0.035613     48.000000
  0.178063 -0.154321 -0.011871     48.000000
  0.154321 -0.130579  0.011871     48.000000
  0.130579 -0.106838  0.035613     48.000000
  0.106838 -0.083096  0.059354     48.000000
  0.011871  0.011871  0.201804     24.000000
 -0.011871  0.035613  0.225546     48.000000
  0.249288 -0.225546 -0.035613     48.000000
  0.225546 -0.201804 -0.011871     48.000000
  0.201804 -0.178063  0.011871     48.000000
  0.178063 -0.154321  0.035613     48.000000
  0.154321 -0.130579  0.059354     48.000000
  0.130579 -0.106838  0.083096     48.000000
  0.011871  0.011871  0.249288     24.000000
  0.273029 -0.249288 -0.011871     48.000000
  0.249288 -0.225546  0.011871     48.000000
  0.225546 -0.201804  0.035613     48.000000
  0.201804 -0.178063  0.059354     48.000000
  0.178063 -0.154321  0.083096     48.000000
  0.154321 -0.130579  0.106838     48.000000
  0.011871  0.011871 -0.273029     24.000000
 -0.011871  0.035613 -0.249288     48.000000
 -0.035613  0.059354 -0.225546     48.000000
[...]
  0.320513 -0.154321 -0.059354     48.000000
  0.296771 -0.130579 -0.035613     48.000000
  0.083096  0.083096 -0.344255     24.000000
  0.059354  0.106838 -0.320513     48.000000
  0.083096  0.083096 -0.296771     24.000000
  0.106838  0.106838  0.106838      8.000000
[...]
  -0.29166667  0.04166667  0.04166667       0.003
  -0.20833333  0.04166667  0.04166667       0.003
  -0.12500000  0.04166667  0.04166667       0.003
  -0.04166667  0.04166667  0.04166667       0.003
   0.12500000  0.12500000  0.04166667       0.003
   0.20833333  0.12500000  0.04166667       0.007
   0.29166667  0.12500000  0.04166667       0.007
   0.37500000  0.12500000  0.04166667       0.007
   0.45833333  0.12500000  0.04166667       0.007
  -0.45833333  0.12500000  0.04166667       0.007
  -0.37500000  0.12500000  0.04166667       0.007
  -0.29166667  0.12500000  0.04166667       0.007
  -0.20833333  0.12500000  0.04166667       0.007
  -0.12500000  0.12500000  0.04166667       0.007
  -0.04166667  0.12500000  0.04166667       0.007
   0.20833333  0.20833333  0.04166667       0.003
   0.29166667  0.20833333  0.04166667       0.007
   0.37500000  0.20833333  0.04166667       0.007
   0.45833333  0.20833333  0.04166667       0.007
  -0.45833333  0.20833333  0.04166667       0.007
  -0.37500000  0.20833333  0.04166667       0.007
  -0.29166667  0.20833333  0.04166667       0.007
  -0.20833333  0.20833333  0.04166667       0.007
  -0.12500000  0.20833333  0.04166667       0.007
  -0.04166667  0.20833333  0.04166667       0.007
   0.29166667  0.29166667  0.04166667       0.003
   0.37500000  0.29166667  0.04166667       0.007
   0.45833333  0.29166667  0.04166667       0.007
  -0.45833333  0.29166667  0.04166667       0.007
  -0.37500000  0.29166667  0.04166667       0.007
  -0.29166667  0.29166667  0.04166667       0.007
  -0.20833333  0.29166667  0.04166667       0.007
  -0.12500000  0.29166667  0.04166667       0.007
  -0.04166667  0.29166667  0.04166667       0.007
   0.37500000  0.37500000  0.04166667       0.003
   0.45833333  0.37500000  0.04166667       0.007
  -0.45833333  0.37500000  0.04166667       0.007
  -0.37500000  0.37500000  0.04166667       0.007
  -0.29166667  0.37500000  0.04166667       0.007
  -0.20833333  0.37500000  0.04166667       0.007
  -0.12500000  0.37500000  0.04166667       0.007
  -0.04166667  0.37500000  0.04166667       0.007
   0.45833333  0.45833333  0.04166667       0.003
  -0.45833333  0.45833333  0.04166667       0.007
  -0.37500000  0.45833333  0.04166667       0.007
  -0.29166667  0.45833333  0.04166667       0.007
  -0.20833333  0.45833333  0.04166667       0.007
  -0.12500000  0.45833333  0.04166667       0.007
  -0.04166667  0.45833333  0.04166667       0.007
  -0.45833333 -0.45833333  0.04166667       0.003
  -0.37500000 -0.45833333  0.04166667       0.007
  -0.29166667 -0.45833333  0.04166667       0.007
[...]
  -0.37500000  0.45833333  0.29166667       0.007
  -0.29166667  0.45833333  0.29166667       0.007
  -0.45833333 -0.45833333  0.29166667       0.003
  -0.37500000 -0.45833333  0.29166667       0.007
  -0.37500000 -0.37500000  0.29166667       0.003
   0.37500000  0.37500000  0.37500000       0.001
   0.45833333  0.37500000  0.37500000       0.003
  -0.45833333  0.37500000  0.37500000       0.003
  -0.37500000  0.37500000  0.37500000       0.003
   0.45833333  0.45833333  0.37500000       0.003
  -0.45833333  0.45833333  0.37500000       0.007
  -0.37500000  0.45833333  0.37500000       0.007
  -0.45833333 -0.45833333  0.37500000       0.003
   0.45833333  0.45833333  0.45833333       0.001
  -0.45833333  0.45833333  0.45833333       0.003

 position of ions in fractional coordinates (direct lattice)
   0.00000000  0.00000000  0.00000000

 position of ions in cartesian coordinates  (Angst):
   0.00000000  0.00000000  0.00000000

 k-point   1 :   0.0417 0.0417 0.0417  plane waves:     181
 k-point   2 :   0.1250 0.0417 0.0417  plane waves:     178
 k-point   3 :   0.2083 0.0417 0.0417  plane waves:     189
 k-point   4 :   0.2917 0.0417 0.0417  plane waves:     194
 k-point   5 :   0.3750 0.0417 0.0417  plane waves:     197
 k-point   6 :   0.4583 0.0417 0.0417  plane waves:     195
 k-point   7 :  -0.4583 0.0417 0.0417  plane waves:     195
 k-point   8 :  -0.3750 0.0417 0.0417  plane waves:     195
 k-point   9 :  -0.2917 0.0417 0.0417  plane waves:     195
 k-point  10 :  -0.2083 0.0417 0.0417  plane waves:     192
 k-point  11 :  -0.1250 0.0417 0.0417  plane waves:     186
 k-point  12 :  -0.0417 0.0417 0.0417  plane waves:     179
 k-point  13 :   0.1250 0.1250 0.0417  plane waves:     179
 k-point  14 :   0.2083 0.1250 0.0417  plane waves:     186
 k-point  15 :   0.2917 0.1250 0.0417  plane waves:     193
 k-point  16 :   0.3750 0.1250 0.0417  plane waves:     195
 k-point  17 :   0.4583 0.1250 0.0417  plane waves:     194
 k-point  18 :  -0.4583 0.1250 0.0417  plane waves:     196
 k-point  19 :  -0.3750 0.1250 0.0417  plane waves:     196
 k-point  20 :  -0.2917 0.1250 0.0417  plane waves:     195
 k-point  21 :  -0.2083 0.1250 0.0417  plane waves:     194
 k-point  22 :  -0.1250 0.1250 0.0417  plane waves:     189
 k-point  23 :  -0.0417 0.1250 0.0417  plane waves:     182
 k-point  24 :   0.2083 0.2083 0.0417  plane waves:     191
 k-point  25 :   0.2917 0.2083 0.0417  plane waves:     194
 k-point  26 :   0.3750 0.2083 0.0417  plane waves:     194
 k-point  27 :   0.4583 0.2083 0.0417  plane waves:     195
 k-point  28 :  -0.4583 0.2083 0.0417  plane waves:     195
 k-point  29 :  -0.3750 0.2083 0.0417  plane waves:     196
 k-point  30 :  -0.2917 0.2083 0.0417  plane waves:     195
 k-point  31 :  -0.2083 0.2083 0.0417  plane waves:     197
 k-point  32 :  -0.1250 0.2083 0.0417  plane waves:     195
 k-point  33 :  -0.0417 0.2083 0.0417  plane waves:     191
 k-point  34 :   0.2917 0.2917 0.0417  plane waves:     200
 k-point  35 :   0.3750 0.2917 0.0417  plane waves:     198
 k-point  36 :   0.4583 0.2917 0.0417  plane waves:     197
 k-point  37 :  -0.4583 0.2917 0.0417  plane waves:     196
 k-point  38 :  -0.3750 0.2917 0.0417  plane waves:     197
 k-point  39 :  -0.2917 0.2917 0.0417  plane waves:     195
 k-point  40 :  -0.2083 0.2917 0.0417  plane waves:     196
 k-point  41 :  -0.1250 0.2917 0.0417  plane waves:     195
 k-point  42 :  -0.0417 0.2917 0.0417  plane waves:     193
 k-point  43 :   0.3750 0.3750 0.0417  plane waves:     201
 k-point  44 :   0.4583 0.3750 0.0417  plane waves:     200
 k-point  45 :  -0.4583 0.3750 0.0417  plane waves:     201
 k-point  46 :  -0.3750 0.3750 0.0417  plane waves:     198
 k-point  47 :  -0.2917 0.3750 0.0417  plane waves:     194
 k-point  48 :  -0.2083 0.3750 0.0417  plane waves:     198
 k-point  49 :  -0.1250 0.3750 0.0417  plane waves:     196
 k-point  50 :  -0.0417 0.3750 0.0417  plane waves:     195
 k-point  51 :   0.4583 0.4583 0.0417  plane waves:     197
 k-point  52 :  -0.4583 0.4583 0.0417  plane waves:     198
 k-point  53 :  -0.3750 0.4583 0.0417  plane waves:     202
 k-point  54 :  -0.2917 0.4583 0.0417  plane waves:     199
 k-point  55 :  -0.2083 0.4583 0.0417  plane waves:     197
 k-point  56 :  -0.1250 0.4583 0.0417  plane waves:     195
 k-point  57 :  -0.0417 0.4583 0.0417  plane waves:     195
 k-point  58 :  -0.4583-0.4583 0.0417  plane waves:     195
 k-point  59 :  -0.3750-0.4583 0.0417  plane waves:     201
 k-point  60 :  -0.2917-0.4583 0.0417  plane waves:     199
[...]
 k-point 168 :  -0.3750 0.4583 0.2917  plane waves:     197
 k-point 169 :  -0.2917 0.4583 0.2917  plane waves:     203
 k-point 170 :  -0.4583-0.4583 0.2917  plane waves:     195
 k-point 171 :  -0.3750-0.4583 0.2917  plane waves:     199
 k-point 172 :  -0.3750-0.3750 0.2917  plane waves:     194
 k-point 173 :   0.3750 0.3750 0.3750  plane waves:     198
 k-point 174 :   0.4583 0.3750 0.3750  plane waves:     195
 k-point 175 :  -0.4583 0.3750 0.3750  plane waves:     196
 k-point 176 :  -0.3750 0.3750 0.3750  plane waves:     192
 k-point 177 :   0.4583 0.4583 0.3750  plane waves:     195
 k-point 178 :  -0.4583 0.4583 0.3750  plane waves:     195
 k-point 179 :  -0.3750 0.4583 0.3750  plane waves:     196
 k-point 180 :  -0.4583-0.4583 0.3750  plane waves:     195
 k-point 181 :   0.4583 0.4583 0.4583  plane waves:     195
 k-point 182 :  -0.4583 0.4583 0.4583  plane waves:     195

 maximum and minimum number of plane-waves per node :        43       25

 maximum number of plane-waves:       204
 maximum index in each direction:
   IXMAX=    4   IYMAX=    4   IZMAX=    4
   IXMIN=   -4   IYMIN=   -4   IZMIN=   -4

 parallel 3D FFT for wavefunctions:
    minimum data exchange during FFTs selected (reduces bandwidth)
 parallel 3D FFT for charge:
    minimum data exchange during FFTs selected (reduces bandwidth)

 Broyden mixing: mesh for mixing (old mesh)
   NGX =  9   NGY =  9   NGZ =  9
  (NGX  = 32   NGY  = 32   NGZ  = 32)
  gives a total of    729 points

 initial charge density was supplied:
 charge density of overlapping atoms calculated
 number of electron       9.0000000 magnetization       3.0000000
 keeping initial charge density in first step

 Maximum index for augmentation-charges         1165 (set IRDMAX)

 First call to EWALD:  gamma=   0.802
 Maximum number of real-space cells 3x 3x 3
 Maximum number of reciprocal cells 3x 3x 3

--------------------------------------- Iteration      1(   1)  ---------------------------------------

 eigenvalue-minimisations  :  9036
 total energy-change (2. order) : 0.2271853E+02  (-0.3495029E+03)
 number of electron       9.0000000 magnetization       3.0000000
 augmentation part        9.0000000 magnetization       3.0000000

 Free energy of the ion-electron system (eV)
  alpha Z        PSCENC =        39.18058524
  Ewald energy   TEWEN  =      -761.78120824
  -Hartree energ DENC   =      -149.59159932
  -exchange      EXHF   =         0.00000000
  -V(xc)+E(xc)   XCENC  =        17.82600435
  PAW double counting   =       719.99081943     -772.94345096
  entropy T*S    EENTRO =        -0.00093023
  eigenvalues    EBANDS =       116.68057080
  atomic energy  EATOM  =       813.35773410
  Solvation  Ediel_sol  =         0.00000000
  free energy    TOTEN  =        22.71852518 eV

  energy without entropy =       22.71945541  energy(sigma->0) =       22.71899029

[...]

 eigenvalue-minimisations  :  9460
 total energy-change (2. order) :-0.2974963E+02  (-0.2748160E+02)
 number of electron       9.0000000 magnetization       3.0000000
 augmentation part        9.0000000 magnetization       3.0000000

[...]

 eigenvalue-minimisations  : 11172
 total energy-change (2. order) :-0.1685930E-03  (-0.1685881E-03)
 number of electron       9.0000000 magnetization       1.4492224
 augmentation part        4.5873780 magnetization       1.0421447

 Broyden mixing:
  rms(total) = 0.11380E+01    rms(broyden)= 0.11380E+01
  rms(prec ) = 0.32240E+01
  weight for this iteration     100.00

[...]

 eigenvalues of (default mixing * dielectric matrix)
  average eigenvalue GAMMA=   0.8882
  0.8882

[...]

 Broyden mixing:
  rms(total) = 0.12498E-02    rms(broyden)= 0.12498E-02
  rms(prec ) = 0.13151E-02
  weight for this iteration     100.00

 eigenvalues of (default mixing * dielectric matrix)
  average eigenvalue GAMMA=   1.3115
  2.5323  2.5323  1.2215  0.8572  0.6281  0.7046  0.7046

[...]

--------------------------------------- Iteration      1(  13)  ---------------------------------------

 eigenvalue-minimisations  :  5960
 total energy-change (2. order) : 0.8906439E-06  (-0.9491551E-07)
 number of electron       9.0000000 magnetization       1.6423129
 augmentation part        5.1261907 magnetization       1.4702451

 Free energy of the ion-electron system (eV)
  alpha Z        PSCENC =        39.18058524
  Ewald energy   TEWEN  =      -761.78120824
  -Hartree energ DENC   =      -131.89205573
  -exchange      EXHF   =         0.00000000
  -V(xc)+E(xc)   XCENC  =        16.44198060
  PAW double counting   =       905.60777507     -958.66574523
  entropy T*S    EENTRO =        -0.00150952
  eigenvalues    EBANDS =        70.73357037
  atomic energy  EATOM  =       813.35773410
  Solvation  Ediel_sol  =         0.00000000
  free energy    TOTEN  =        -7.01887334 eV

  energy without entropy =       -7.01736382  energy(sigma->0) =       -7.01811858

 average (electrostatic) potential at core
  the test charge radii are     1.0452
  (the norm of the test charge is              1.0000)
       1 -78.2493

 E-fermi :  10.3978     XC(G=0): -13.4269     alpha+bet :-17.7917

 Fermi energy:        10.3978307235

 spin component 1

 k-point     1 :       0.0417    0.0417    0.0417
  band No.  band energies     occupation
      1       1.4381      1.00000
      2       7.6465      1.00000
      3       7.6834      1.00000
      4       7.6834      1.00000
      5       8.7341      1.00000
      6       8.7341      1.00000
      7      33.3507      0.00000
      8      36.8495      0.00000
      9      37.7200      0.00000
     10      37.7200      0.00000
     11      41.2679      0.00000
     12      41.2679      0.00000

[...]

 k-point   182 :      -0.4583    0.4583    0.4583
  band No.  band energies     occupation
      1       5.3258      1.00000
      2       7.4232      1.00000
      3       7.6561      1.00000
      4       8.7399      1.00000
      5       9.5878      1.00000
      6      11.2320      0.00000
      7      16.6478      0.00000
      8      30.7836      0.00000
      9      33.7544      0.00000
     10      34.0256      0.00000
     11      39.6156      0.00000
     12      40.1593      0.00000
 Fermi energy:        10.3978307235

 spin component 2

[...]

 k-point   182 :      -0.4583    0.4583    0.4583
  band No.  band energies     occupation
      1       6.2676      1.00000
      2       9.0257      1.00000
      3       9.3621      1.00000
      4       9.6115      1.00000
      5      11.4992      0.00000
      6      12.3127      0.00000
      7      17.6425      0.00000
      8      30.7459      0.00000
      9      33.9404      0.00000
     10      34.3529      0.00000
     11      39.8899      0.00000
     12      40.3580      0.00000

 soft charge-density along one line, spin component           1
         0         1         2         3         4         5         6         7         8         9
 total charge-density along one line

 soft charge-density along one line, spin component           2
         0         1         2         3         4         5         6         7         8         9
 total charge-density along one line

------------------------ aborting loop because EDIFF is reached ----------------------------------------

  FORCE on cell =-STRESS in cart. coord.  units (eV):
  Direction    XX          YY          ZZ          XY          YZ          ZX
  Alpha Z    39.18059    39.18059    39.18059
  Ewald    -253.92708  -253.92708  -253.92708     0.00000     0.00000     0.00000
  Hartree    43.96451    43.96451    43.96451     0.00000     0.00000     0.00000
  E(xc)     -46.27958   -46.27958   -46.27958    -0.00000    -0.00000    -0.00000
  Local      -9.67875    -9.67875    -9.67875     0.00006     0.00006     0.00006
  n-local    -4.14830    -3.27984    -6.59174     1.68445    -1.79974    -0.00066
  augment   155.47389   155.47389   155.47389    -0.00005    -0.00005    -0.00005
  Kinetic    74.95282    74.57819    78.46365    -0.81257     0.73991    -0.02970
  Fock        0.00000     0.00000     0.00000     0.00000     0.00000     0.00000
  Total       0.05851     0.05851     0.05851     0.00000    -0.00000    -0.00000
  in kB       8.67076     8.67076     8.67076     0.00000    -0.00000    -0.00000

 VOLUME and BASIS-vectors are now :
  energy-cutoff  :      400.00
  volume of cell :       10.81
      direct lattice vectors                 reciprocal lattice vectors
     0.000000000  1.755000000  1.755000000    -0.284900285  0.284900285  0.284900285
     1.755000000  0.000000000  1.755000000     0.284900285 -0.284900285  0.284900285
     1.755000000  1.755000000  0.000000000     0.284900285  0.284900285 -0.284900285

  length of vectors
     2.481944802  2.481944802  2.481944802     0.493461769  0.493461769  0.493461769

 FORCES acting on ions
    electron-ion (+dipol)            ewald-force                    non-local-force                 convergence-correction
   -.130E-14 -.675E-15 0.217E-15   0.813E-15 0.404E-15 -.279E-14   -.662E-23 0.496E-23 0.000E+00   0.781E-14 0.306E-14 0.243E-14
   -.130E-14 -.675E-15 0.217E-15   0.813E-15 0.404E-15 -.279E-14   -.662E-23 0.496E-23 0.000E+00   0.781E-14 0.306E-14 0.243E-14

 POSITION                                       TOTAL-FORCE (eV/Angst)
      0.00000      0.00000      0.00000        -0.000000      0.000000      0.000000
    total drift:                                0.000000      0.000000     -0.000000

  FREE ENERGIE OF THE ION-ELECTRON SYSTEM (eV)
  free  energy   TOTEN  =        -7.01887334 eV

  energy  without entropy=       -7.01736382  energy(sigma->0) =       -7.01811858