 vasp.6.3.2 27Jun22 (build Aug 12 2022 00:53:59) complex

 executed on               tv2STD date 2024.11.30  15:44:56

 INCAR:
   SYSTEM = Co-hcc
   NWRITE = 2    write-flag
   ISTART = 0    job   : 0-new, 1-cont, 2-samecut
   ICHARG = 2    charge: 0-wave, 1-file, 2-atom, >10-const
   INIWAV = 1    electr: 0-lowe 1-rand  2-diag
   ENCUT = 400     energy cutoff in eV
   PREC = Accurate      normal | accurate
   ADDGRID = .FALSE.  (use fine grid)
   NELM = 100     number of ELM steps
   EDIFF = 1E-06    energy stopping-criterion for ELM
   LREAL = .FALSE.      real-space projection (.FALSE., .TRUE., On, Auto)
   ALGO = Normal     Normal, Fast, Very_Fast
   LWAVE = .TRUE.
   LCHARG = .TRUE.
   NSW = 100       max number of geometry steps
   IBRION = 2     ionic relax: 0-MD, 1-quasi-Newton, 2-CG, 3-Damped MD
   EDIFFG = -0.02  force (eV/A) stopping-criterion for geometry steps
   ISIF = 3     (1:force\=y stress\=trace only ions\=y shape\=n volume\=n)
   ISYM = 1     (1-use symmetry, 0-no symmetry)
   ISMEAR = 0     (-1-Fermi, 1-Methfessel/Paxton)
   SIGMA = 0.05   broadening in eV
   LORBIT = 11 magnetic props in OUTCAR should be on
   NPAR = 4
   ISPIN = 2
   MAGMOM = 2*3

 POTCAR:    PAW_PBE Co 02Aug2007
 POTCAR:    PAW_PBE Co 02Aug2007
   VRHFIN =Co: d8 s1

   TITEL  = PAW_PBE Co 02Aug2007
   POMASS =   58.933; ZVAL   =    9.000    mass and valenz
   ENMAX  =  267.968; ENMIN  =  200.976 eV

  PAW_PBE Co 02Aug2007                  :

 POSCAR: Co
  positions in cartesian coordinates
 exchange correlation table for  LEXCH =        8
   RHO(1)=    0.500       N(1)  =     2000
   RHO(2)=  100.500       N(2)  =     4000

 ion  position               nearest neighbor table
   1  0.000  0.000  0.000-
   2  0.333  0.667  0.500-

  LATTYP: Found a hexagonal cell.
 ALAT       =     2.4700000000
 C/A-ratio  =     3.2753036437

  Lattice vectors:

 A1 = (   2.4700000000,   0.0000000000,   0.0000000000)
 A2 = (  -1.2350000000,   2.1390827473,   0.0000000000)
 A3 = (   0.0000000000,   0.0000000000,   8.0900000000)

Analysis of symmetry for initial positions (statically):
 Subroutine PRICEL returns:
 Original cell was already a primitive cell.

 Routine SETGRP: Setting up the symmetry group for a
 hexagonal supercell.

 Subroutine GETGRP returns: Found 24 space group operations
 (whereof 12 operations were pure point group operations)
 out of a pool of 24 trial point group operations.

The static configuration has the point symmetry D_3h.
 The point group associated with its full space group is D_6h.

Analysis of symmetry for dynamics (positions and initial velocities):
 Subroutine PRICEL returns:
 Original cell was already a primitive cell.

[...]

The dynamic configuration has the point symmetry D_3h.
 The point group associated with its full space group is D_6h.

Analysis of structural, dynamic, and magnetic symmetry:
 Subroutine PRICEL returns:
 Original cell was already a primitive cell.

 Routine SETGRP: Setting up the symmetry group for a
 hexagonal supercell.

 Subroutine GETGRP returns: Found 24 space group operations
 (whereof 12 operations were pure point group operations)
 out of a pool of 24 trial point group operations.

The overall configuration has the point symmetry D_3h.
 The point group associated with its full space group is D_6h.

 Subroutine INISYM returns: Found 24 space group operations
 (whereof 12 operations are pure point group operations),
 and found     1 'primitive' translations

                                     Primitive cell

  volume of cell :      42.7438

  direct lattice vectors                    reciprocal lattice vectors
     2.470000000  0.000000000  0.000000000     0.404858300  0.233745048  0.000000000
    -1.235000000  2.139082747  0.000000000     0.000000000  0.467490097  0.000000000
     0.000000000  0.000000000  8.090000000     0.000000000  0.000000000  0.123609394

  length of vectors
     2.470000000  2.470000000  8.090000000     0.467490097  0.467490097  0.123609394

  position of ions in fractional coordinates (direct lattice)
     0.000000000  0.000000000  0.000000000
     0.333333333  0.666666667  0.500000000

  ion indices of the primitive-cell ions
   primitive index   ion index
                 1           1
                 2           2

 KPOINTS: Automatic mesh

Automatic generation of k-mesh.
 Grid dimensions read from file:
 generate k-points for:   10   10    8

 Generating k-lattice:

  Cartesian coordinates                     Fractional coordinates (reciprocal lattice)
     0.040485830  0.023374505  0.000000000     0.100000000  0.000000000  0.000000000
     0.000000000  0.046749010  0.000000000     0.000000000  0.100000000  0.000000000
     0.000000000  0.000000000  0.015451174     0.000000000  0.000000000  0.125000000

  Length of vectors
     0.046749010  0.046749010  0.015451174

  Shift w.r.t. Gamma in fractional coordinates (k-lattice)
     0.000000000  0.000000000  0.000000000

 Subroutine IBZKPT returns following result:

 Found     70 irreducible k-points:

 Following reciprocal coordinates:
            Coordinates               Weight
  0.000000  0.000000  0.000000      1.000000
  0.100000 -0.000000  0.000000      6.000000
  0.200000 -0.000000  0.000000      6.000000
  0.300000 -0.000000  0.000000      6.000000
  0.400000 -0.000000  0.000000      6.000000
  0.500000 -0.000000  0.000000      3.000000
  0.100000  0.100000  0.000000      6.000000
  0.200000  0.100000  0.000000     12.000000
  0.300000  0.100000  0.000000     12.000000
  0.400000  0.100000  0.000000     12.000000
  0.200000  0.200000  0.000000      6.000000
  0.300000  0.200000  0.000000     12.000000
  0.400000  0.200000  0.000000      6.000000
  0.300000  0.300000  0.000000      6.000000
  0.000000  0.000000  0.125000      2.000000
  0.100000 -0.000000  0.125000     12.000000
  0.200000 -0.000000  0.125000     12.000000
  0.300000 -0.000000  0.125000     12.000000
  0.400000 -0.000000  0.125000     12.000000
  0.500000 -0.000000  0.125000      6.000000
  0.100000  0.100000  0.125000     12.000000
  0.200000  0.100000  0.125000     24.000000
  0.300000  0.100000  0.125000     24.000000
  0.400000  0.100000  0.125000     24.000000
  0.200000  0.200000  0.125000     12.000000
  0.300000  0.200000  0.125000     24.000000
  0.400000  0.200000  0.125000     12.000000
  0.300000  0.300000  0.125000     12.000000
  0.000000  0.000000  0.250000      2.000000
  0.100000 -0.000000  0.250000     12.000000
  0.200000 -0.000000  0.250000     12.000000
  0.300000 -0.000000  0.250000     12.000000
  0.400000 -0.000000  0.250000     12.000000
  0.500000 -0.000000  0.250000      6.000000
  0.100000  0.100000  0.250000     12.000000
  0.200000  0.100000  0.250000     24.000000
  0.300000  0.100000  0.250000     24.000000
  0.400000  0.100000  0.250000     24.000000
  0.200000  0.200000  0.250000     12.000000
  0.300000  0.200000  0.250000     24.000000
  0.400000  0.200000  0.250000     12.000000
  0.300000  0.300000  0.250000     12.000000
  0.000000  0.000000  0.375000      2.000000
  0.100000 -0.000000  0.375000     12.000000
  0.200000 -0.000000  0.375000     12.000000
  0.300000 -0.000000  0.375000     12.000000
  0.400000 -0.000000  0.375000     12.000000
  0.500000 -0.000000  0.375000      6.000000
  0.100000  0.100000  0.375000     12.000000
  0.200000  0.100000  0.375000     24.000000
  0.300000  0.100000  0.375000     24.000000
  0.400000  0.100000  0.375000     24.000000
  0.200000  0.200000  0.375000     12.000000
  0.300000  0.200000  0.375000     24.000000
  0.400000  0.200000  0.375000     12.000000
  0.300000  0.300000  0.375000     12.000000
  0.000000  0.000000  0.500000      1.000000
  0.100000 -0.000000  0.500000      6.000000
  0.200000 -0.000000  0.500000      6.000000
  0.300000 -0.000000  0.500000      6.000000
  0.400000 -0.000000  0.500000      6.000000
  0.500000 -0.000000  0.500000      3.000000
  0.100000  0.100000  0.500000      6.000000
  0.200000  0.100000  0.500000     12.000000
  0.300000  0.100000  0.500000     12.000000
  0.400000  0.100000  0.500000     12.000000
  0.200000  0.200000  0.500000      6.000000
  0.300000  0.200000  0.500000     12.000000
  0.400000  0.200000  0.500000      6.000000
  0.300000  0.300000  0.500000      6.000000

 Following cartesian coordinates:
            Coordinates               Weight
  0.000000  0.000000  0.000000      1.000000
  0.040486  0.023375  0.000000      6.000000
  0.080972  0.046749  0.000000      6.000000
  0.121457  0.070124  0.000000      6.000000
  0.161943  0.093498  0.000000      6.000000
  0.202429  0.116873  0.000000      3.000000
  0.040486  0.070124  0.000000      6.000000
  0.080972  0.093498  0.000000     12.000000
  0.121457  0.116873  0.000000     12.000000
  0.161943  0.140247  0.000000     12.000000
  0.080972  0.140247  0.000000      6.000000
  0.121457  0.163622  0.000000     12.000000
  0.161943  0.186996  0.000000      6.000000
  0.121457  0.210371  0.000000      6.000000
  0.000000  0.000000  0.015451      2.000000
  0.040486  0.023375  0.015451     12.000000
  0.080972  0.046749  0.015451     12.000000
  0.121457  0.070124  0.015451     12.000000
  0.161943  0.093498  0.015451     12.000000
  0.202429  0.116873  0.015451      6.000000
  0.040486  0.070124  0.015451     12.000000
  0.080972  0.093498  0.015451     24.000000
  0.121457  0.116873  0.015451     24.000000
  0.161943  0.140247  0.015451     24.000000
  0.080972  0.140247  0.015451     12.000000
  0.121457  0.163622  0.015451     24.000000
  0.161943  0.186996  0.015451     12.000000
  0.121457  0.210371  0.015451     12.000000
  0.000000  0.000000  0.030902      2.000000
  0.040486  0.023375  0.030902     12.000000
  0.080972  0.046749  0.030902     12.000000
  0.121457  0.070124  0.030902     12.000000
  0.161943  0.093498  0.030902     12.000000
  0.202429  0.116873  0.030902      6.000000
  0.040486  0.070124  0.030902     12.000000
  0.080972  0.093498  0.030902     24.000000
  0.121457  0.116873  0.030902     24.000000
  0.161943  0.140247  0.030902     24.000000
  0.080972  0.140247  0.030902     12.000000
  0.121457  0.163622  0.030902     24.000000
  0.161943  0.186996  0.030902     12.000000
  0.121457  0.210371  0.030902     12.000000
  0.000000  0.000000  0.046354      2.000000
  0.040486  0.023375  0.046354     12.000000
  0.080972  0.046749  0.046354     12.000000
  0.121457  0.070124  0.046354     12.000000
  0.161943  0.093498  0.046354     12.000000
  0.202429  0.116873  0.046354      6.000000
  0.040486  0.070124  0.046354     12.000000
  0.080972  0.093498  0.046354     24.000000
  0.121457  0.116873  0.046354     24.000000
  0.161943  0.140247  0.046354     24.000000
  0.080972  0.140247  0.046354     12.000000
  0.121457  0.163622  0.046354     24.000000
  0.161943  0.186996  0.046354     12.000000
  0.121457  0.210371  0.046354     12.000000
  0.000000  0.000000  0.061805      1.000000
  0.040486  0.023375  0.061805      6.000000
  0.080972  0.046749  0.061805      6.000000
  0.121457  0.070124  0.061805      6.000000
  0.161943  0.093498  0.061805      6.000000
  0.202429  0.116873  0.061805      3.000000
  0.040486  0.070124  0.061805      6.000000
  0.080972  0.093498  0.061805     12.000000
[...]
 k-point  58 :   0.1000-0.0000 0.5000  plane waves:     756
 k-point  59 :   0.2000-0.0000 0.5000  plane waves:     764
 k-point  60 :   0.3000-0.0000 0.5000  plane waves:     772
 k-point  61 :   0.4000-0.0000 0.5000  plane waves:     780
 k-point  62 :   0.5000-0.0000 0.5000  plane waves:     768
 k-point  63 :   0.1000 0.1000 0.5000  plane waves:     764
 k-point  64 :   0.2000 0.1000 0.5000  plane waves:     774
 k-point  65 :   0.3000 0.1000 0.5000  plane waves:     786
 k-point  66 :   0.4000 0.1000 0.5000  plane waves:     780
 k-point  67 :   0.2000 0.2000 0.5000  plane waves:     784
 k-point  68 :   0.3000 0.2000 0.5000  plane waves:     790
 k-point  69 :   0.4000 0.2000 0.5000  plane waves:     778
 k-point  70 :   0.3000 0.3000 0.5000  plane waves:     784

 maximum and minimum number of plane-waves per node :       140      120

 maximum number of plane-waves:       791
 maximum index in each direction:
   IXMAX=    4   IYMAX=    4   IZMAX=   13
   IXMIN=   -4   IYMIN=   -4   IZMIN=  -13

 parallel 3D FFT for wavefunctions:
    minimum data exchange during FFTs selected (reduces bandwidth)
 parallel 3D FFT for charge:
    minimum data exchange during FFTs selected (reduces bandwidth)

 Broyden mixing: mesh for mixing (old mesh)
   NGX =  9   NGY =  9   NGZ = 27
  (NGX  = 32   NGY  = 32   NGZ  =108)
  gives a total of   2187 points

 initial charge density was supplied:
 charge density of overlapping atoms calculated
 number of electron      18.0000000 magnetization       6.0000000
 keeping initial charge density in first step

 Maximum index for augmentation-charges         1022 (set IRDMAX)

 First call to EWALD:  gamma=   0.507
 Maximum number of real-space cells 4x 4x 1
 Maximum number of reciprocal cells 2x 2x 6

--------------------------------------- Iteration      1(   1)  ---------------------------------------

 eigenvalue-minimisations  :  4480
 total energy-change (2. order) : 0.7709830E+02  (-0.6560500E+03)
 number of electron      18.0000000 magnetization       6.0000000
 augmentation part       18.0000000 magnetization       6.0000000

 Free energy of the ion-electron system (eV)
  alpha Z        PSCENC =        39.63868225
  Ewald energy   TEWEN  =     -1054.56880693
  -Hartree energ DENC   =      -595.60964206
  -exchange      EXHF   =         0.00000000
  -V(xc)+E(xc)   XCENC  =        33.36921587
  PAW double counting   =      1439.98163886    -1545.88690193
  entropy T*S    EENTRO =        -0.00393596
  eigenvalues    EBANDS =       133.46258114
  atomic energy  EATOM  =      1626.71546820
  Solvation  Ediel_sol  =         0.00000000
  free energy    TOTEN  =        77.09829945 eV

  energy without entropy =       77.10223541  energy(sigma->0) =       77.10026743

[...]

 eigenvalue-minimisations  :  4520
 total energy-change (2. order) :-0.8768799E+02  (-0.8096890E+02)
 number of electron      18.0000000 magnetization       6.0000000
 augmentation part       18.0000000 magnetization       6.0000000

[...]

 Broyden mixing:
  rms(total) = 0.12385E+01    rms(broyden)= 0.12385E+01
  rms(prec ) = 0.16820E+01
  weight for this iteration     100.00

[...]

 eigenvalues of (default mixing * dielectric matrix)
  average eigenvalue GAMMA=   0.3939
  0.3939

[...]

 average (electrostatic) potential at core
  the test charge radii are     1.0452
  (the norm of the test charge is              1.0000)
       1 -85.3785       2 -85.3785

 E-fermi :   3.1955     XC(G=0):  -9.3823     alpha+bet : -8.9999

 Fermi energy:         3.1955034239

 spin component 1

 k-point     1 :       0.0000    0.0000    0.0000
  band No.  band energies     occupation
      1      -2.9791      1.00000
      2      -2.5032      1.00000
      3      -0.0240      1.00000
      4       0.8975      1.00000
      5       0.8975      1.00000
      6       0.8984      1.00000
      7       0.8985      1.00000
      8       1.0045      1.00000
      9       1.8075      1.00000
     10       1.8075      1.00000
     11       1.8105      1.00000
     12       1.8105      1.00000
     13       2.2189      1.00000
     14       6.5065      0.00000
     15      10.9325      0.00000
     16      18.8545      0.00000

[...]

 k-point    70 :       0.3000    0.3000    0.5000
  band No.  band energies     occupation
      1       0.3319      1.00000
      2       0.3319      1.00000
      3       0.3700      1.00000
      4       0.3700      1.00000
      5       0.7656      1.00000
      6       0.7656      1.00000
      7       0.8236      1.00000
      8       0.8236      1.00000
      9       1.3335      1.00000
     10       1.3335      1.00000
     11       8.2908      0.00000
     12       8.2908      0.00000
     13      11.5335      0.00000
     14      11.5335      0.00000
     15      12.3030      0.00000
     16      12.3030      0.00000
 Fermi energy:         3.1955034239

[...]

 soft charge-density along one line, spin component           1
         0         1         2         3         4         5         6         7         8         9
 total charge-density along one line

[...]

------------------------ aborting loop because EDIFF is reached ----------------------------------------

 total charge

# of ion       s       p       d       tot
    1        0.472   0.293   7.178   7.942
    2        0.472   0.293   7.178   7.942
tot          0.943   0.585  14.356  15.884

 magnetization (x)

[...]

  FORCE on cell =-STRESS in cart. coord.  units (eV):
  Direction    XX          YY          ZZ          XY          YZ          ZX
  Alpha Z    39.63868    39.63868    39.63868
  Ewald     -59.61202   -59.61202  -935.34508    -0.00000     0.00000     0.00000
  Hartree   384.37303   384.37303  -199.31842    -0.00000    -0.00000    -0.00000
  E(xc)     -90.91852   -90.91852   -91.18099     0.00000    -0.00000    -0.00000
  Local    -723.28987  -723.28999   739.21948    -0.00010    -0.00000    -0.00000
  n-local   -12.38694   -13.10848   -16.58103   -11.21577    -0.05006    -0.05711
  augment   313.24052   313.24064   311.04749     0.00010    -0.00000    -0.00000
  Kinetic   147.49289   143.51244   151.20551     7.95719     0.02721     0.04276
  Fock        0.00000     0.00000     0.00000     0.00000     0.00000     0.00000
  Total      -3.81322    -3.81322    -1.31436    -0.00000     0.00000    -0.00000
  in kB    -142.93196  -142.93196   -49.26659    -0.00000     0.00000    -0.00000

 VOLUME and BASIS-vectors are now :
  energy-cutoff  :      400.00
  volume of cell :       42.74
      direct lattice vectors                 reciprocal lattice vectors
     2.470000000  0.000000000  0.000000000     0.404858300  0.233745048  0.000000000
    -1.235000000  2.139082747  0.000000000     0.000000000  0.467490097  0.000000000
     0.000000000  0.000000000  8.090000000     0.000000000  0.000000000  0.123609394

[...]

 FORCES acting on ions
    electron-ion (+dipol)            ewald-force                    non-local-force                 convergence-correction
   -.472E-05 0.273E-05 -.200E-13   -.208E-13 0.254E-14 -.503E-13   0.000E+00 -.217E-18 0.000E+00   0.912E-10 -.527E-10 -.912E-13
   -.377E-05 0.218E-05 -.746E-12   -.268E-13 0.108E-13 0.503E-13   0.000E+00 0.217E-18 0.000E+00   -.159E-09 0.919E-10 0.190E-12
   -.849E-05 0.490E-05 -.766E-12   -.476E-13 0.133E-13 0.000E+00   0.000E+00 0.000E+00 0.000E+00   -.679E-10 0.392E-10 0.991E-13

 POSITION                                       TOTAL-FORCE (eV/Angst)
      0.00000      0.00000      0.00000        -0.000000     -0.000000      0.000000
      0.00000      1.42606      4.04500         0.000000      0.000000      0.000000
    total drift:                               -0.000008      0.000005     -0.000000

  FREE ENERGIE OF THE ION-ELECTRON SYSTEM (eV)
  free  energy   TOTEN  =       -11.23375971 eV

  energy  without entropy=      -11.22973932  energy(sigma->0) =      -11.23174952

[...]

 E-fermi :   4.8847     XC(G=0): -10.3362     alpha+bet :-11.2729

[...]

 d Force = 0.0000000E+00[ 0.000E+00, 0.000E+00]  d Energy = 0.6416422E-01-0.642E-01
 d Force = 0.0000000E+00[ 0.000E+00, 0.000E+00]  d Ewald  = 0.3845100E+02-0.385E+02

 Steepest descent step on ions:
 trial-energy change:   -0.064164  1 .order    0.037011   -0.743150    0.817173
  (g-gl).g = 0.743E+00      g.g   = 0.743E+00  gl.gl    = 0.000E+00
 g(Force)  = 0.144E-44   g(Stress)= 0.743E+00 ortho     = 0.000E+00
 gamma     =   0.00000
 trial     =   1.00000
 opt step  =   0.57155  (harmonic =   0.47628) maximal distance =0.00000000
 next E    =   -11.465025   (d E  =  -0.23126)

[...]

 d Force = 0.0000000E+00[ 0.000E+00, 0.000E+00]  d Energy = 0.1748931E+00-0.175E+00
 d Force = 0.0000000E+00[ 0.000E+00, 0.000E+00]  d Ewald  =-0.1583156E+02 0.158E+02

[...]

 Conjugate gradient step on ions:
 trial-energy change:   -0.035075  1 .order   -0.034342   -0.032202   -0.036483
  (g-gl).g = 0.366E-01      g.g   = 0.353E-01  gl.gl    = 0.743E+00
 g(Force)  = 0.515E-45   g(Stress)= 0.353E-01 ortho     =-0.134E-02
 gamma     =   0.04929
 trial     =   0.91431
 opt step  =   3.53719  (harmonic =   3.65724) maximal distance =0.00000000
 next E    =   -11.577509   (d E  =  -0.10469)

[...]

 d Force = 0.0000000E+00[ 0.000E+00, 0.000E+00]  d Energy =-0.4362975E-01 0.436E-01
 d Force = 0.0000000E+00[ 0.000E+00, 0.000E+00]  d Ewald  = 0.3265950E+03-0.327E+03

[...]

 d Force = 0.0000000E+00[ 0.000E+00, 0.000E+00]  d Energy =-0.6312292E-01 0.631E-01
 d Force = 0.0000000E+00[ 0.000E+00, 0.000E+00]  d Ewald  = 0.5219658E+02-0.522E+02

[...]

 d Force = 0.0000000E+00[ 0.000E+00, 0.000E+00]  d Energy = 0.1378683E-05-0.138E-05
 d Force = 0.0000000E+00[ 0.000E+00, 0.000E+00]  d Ewald  =-0.1176415E+00 0.118E+00

[...]

 d Force = 0.0000000E+00[ 0.000E+00, 0.000E+00]  d Energy =-0.6414250E-06 0.641E-06
 d Force = 0.0000000E+00[ 0.000E+00, 0.000E+00]  d Ewald  =-0.1163151E+00 0.116E+00

[...]

 Conjugate gradient step on ions:
 trial-energy change:   -0.000523  1 .order   -0.000524   -0.000553   -0.000496
  (g-gl).g = 0.130E-01      g.g   = 0.521E-02  gl.gl    = 0.877E+00
 g(Force)  = 0.718E-44   g(Stress)= 0.521E-02 ortho     =-0.170E-03
 gamma     =   0.01479
 trial     =   0.10606
 opt step  =   0.42424  (harmonic =   1.03026) maximal distance =0.00000000
 next E    =   -14.082846   (d E  =  -0.00268)

[...]

 eigenvalue-minimisations  :  4880
 total energy-change (2. order) :-0.9257771E-02  (-0.2146739E-01)
 number of electron      17.9999999 magnetization       3.3402104
 augmentation part       10.2140010 magnetization       2.9931910

[...]

 Broyden mixing:
  rms(total) = 0.84655E-03    rms(broyden)= 0.84645E-03
  rms(prec ) = 0.10366E-02
  weight for this iteration     100.00

 eigenvalues of (default mixing * dielectric matrix)
  average eigenvalue GAMMA=   1.1656
  2.1913  0.6455  0.6724  1.1594  1.1594

[...]

--------------------------------------- Iteration     28(   7)  ---------------------------------------

 eigenvalue-minimisations  :  2456
 total energy-change (2. order) : 0.3255307E-06  (-0.7371499E-07)
 number of electron      17.9999999 magnetization       3.3335055
 augmentation part       10.2527203 magnetization       2.9881354

 Free energy of the ion-electron system (eV)
  alpha Z        PSCENC =        78.09207632
  Ewald energy   TEWEN  =     -1521.73170024
  -Hartree energ DENC   =      -264.52823251
  -exchange      EXHF   =         0.00000000
  -V(xc)+E(xc)   XCENC  =        32.89429880
  PAW double counting   =      1807.13592606    -1913.18556238
  entropy T*S    EENTRO =        -0.00257924
  eigenvalues    EBANDS =       140.52741525
  atomic energy  EATOM  =      1626.71546820
  Solvation  Ediel_sol  =         0.00000000
  free energy    TOTEN  =       -14.08288974 eV

  energy without entropy =      -14.08031050  energy(sigma->0) =      -14.08160012

 average (electrostatic) potential at core
  the test charge radii are     1.0452
  (the norm of the test charge is              1.0000)
       1 -78.3034       2 -78.3034

 E-fermi :  10.2032     XC(G=0): -13.4063     alpha+bet :-17.7306

 Fermi energy:        10.2032188763

[...]

 k-point    70 :       0.3000    0.3000    0.5000
  band No.  band energies     occupation
      1       6.1710      1.00000
      2       6.1710      1.00000
      3       6.7157      1.00000
      4       6.7157      1.00000
      5       7.2920      1.00000
      6       7.2920      1.00000
      7       8.3308      1.00000
      8       8.3308      1.00000
      9       9.4692      1.00000
     10       9.4692      1.00000
     11      14.9515      0.00000
     12      14.9515      0.00000
     13      18.3838      0.00000
     14      18.3838      0.00000
     15      20.2169      0.00000
     16      20.2169      0.00000
 Fermi energy:        10.2032188763

 spin component 2

[...]

 k-point    70 :       0.3000    0.3000    0.5000
  band No.  band energies     occupation
      1       7.3762      1.00000
      2       7.3762      1.00000
      3       8.0477      1.00000
      4       8.0477      1.00000
      5       8.5480      1.00000
      6       8.5480      1.00000
      7      10.0903      0.99930
      8      10.0903      0.99930
      9      11.3824      0.00000
     10      11.3824      0.00000
     11      15.7149      0.00000
     12      15.7149      0.00000
     13      19.0683      0.00000
     14      19.0683      0.00000
     15      20.8712      0.00000
     16      20.8712      0.00000

[...]

 soft charge-density along one line, spin component           2
         0         1         2         3         4         5         6         7         8         9
 total charge-density along one line

------------------------ aborting loop because EDIFF is reached ----------------------------------------

[...]

  FORCE on cell =-STRESS in cart. coord.  units (eV):
  Direction    XX          YY          ZZ          XY          YZ          ZX
  Alpha Z    78.09208    78.09208    78.09208
  Ewald    -509.53281  -509.53281  -502.66715     0.00000     0.00000     0.00000
  Hartree    87.12735    87.12735    90.27526    -0.00000    -0.00000    -0.00000
  E(xc)     -92.55918   -92.55918   -92.56649     0.00000    -0.00000    -0.00000
  Local     -16.70428   -16.70441   -26.44804    -0.00011    -0.00000    -0.00000
  n-local    -9.55540    -9.28259    -9.38344    -6.25393     1.75155     1.74686
  augment   311.03350   311.03362   310.91346     0.00010    -0.00000    -0.00000
  Kinetic   153.38258   150.61245   151.81118     4.28798     0.21466     0.84440
  Fock        0.00000     0.00000     0.00000     0.00000     0.00000     0.00000
  Total       0.03517     0.03517     0.02686    -0.00000     0.00000     0.00000
  in kB       2.59716     2.59716     1.98361    -0.00000     0.00000     0.00000

 VOLUME and BASIS-vectors are now :
  energy-cutoff  :      400.00
  volume of cell :       21.70
      direct lattice vectors                 reciprocal lattice vectors
     2.492464747  0.000000000 -0.000000000     0.401209285  0.231638289  0.000000000
    -1.246232374  2.158537789  0.000000000    -0.000000000  0.463276578  0.000000000
    -0.000000000 -0.000000000  4.032706520     0.000000000 -0.000000000  0.247972421

  length of vectors
     2.492464747  2.492464747  4.032706520     0.463276578  0.463276578  0.247972421

 FORCES acting on ions
    electron-ion (+dipol)            ewald-force                    non-local-force                 convergence-correction
   -.580E-05 0.335E-05 -.648E-13   0.107E-11 -.524E-12 -.244E-13   0.121E-16 -.694E-17 0.000E+00   -.820E-10 0.474E-10 -.747E-14
   -.381E-05 0.220E-05 -.103E-11   -.107E-11 0.521E-12 0.244E-13   -.121E-16 0.694E-17 0.000E+00   0.326E-10 -.188E-10 0.363E-13
   -.961E-05 0.555E-05 -.109E-11   0.627E-14 -.338E-14 0.694E-17   -.771E-26 -.240E-26 0.000E+00   -.494E-10 0.286E-10 0.288E-13

 POSITION                                       TOTAL-FORCE (eV/Angst)
      0.00000     -0.00000      0.00000         0.000000      0.000000     -0.000000
      0.00000      1.43903      2.01635        -0.000000     -0.000000      0.000000
    total drift:                               -0.000010      0.000006     -0.000000

  FREE ENERGIE OF THE ION-ELECTRON SYSTEM (eV)
  free  energy   TOTEN  =       -14.08288974 eV

  energy  without entropy=      -14.08031050  energy(sigma->0) =      -14.08160012

 d Force = 0.0000000E+00[ 0.000E+00, 0.000E+00]  d Energy = 0.9666450E-03-0.967E-03
 d Force = 0.0000000E+00[ 0.000E+00, 0.000E+00]  d Ewald  = 0.1950108E+01-0.195E+01

 reached required accuracy - stopping structural energy minimisation
 writing wavefunctions

 total charge

[...]

 magnetization (x)

# of ion       s       p       d       tot
    1       -0.013  -0.051   1.749   1.685
    2       -0.013  -0.051   1.749   1.685
tot         -0.026  -0.102   3.497   3.369