 vasp.6.3.2 27Jun22 (build Aug 12 2022 00:53:59) complex

 executed on               tv2STD date 2024.12.02  17:05:39

 INCAR:
   SYSTEM = Co-hcp
   NWRITE = 2    write-flag
   ISTART = 0    job   : 0-new, 1-cont, 2-samecut
   ICHARG = 2    charge: 0-wave, 1-file, 2-atom, >10-const
   INIWAV = 1    electr: 0-lowe 1-rand  2-diag
   ENCUT = 425.0     energy cutoff in eV
   PREC = Accurate      normal | accurate
   ADDGRID = .FALSE.  (use fine grid)
   NELM = 100     number of ELM steps
   EDIFF = 1E-06    energy stopping-criterion for ELM
   LREAL = .FALSE.      real-space projection (.FALSE., .TRUE., On, Auto)
   ALGO = Normal     Normal, Fast, Very_Fast
   LWAVE = .FALSE.
   LCHARG = .FALSE.
   NSW = 100       max number of geometry steps
   IBRION = 2    ionic relax: 0-MD, 1-quasi-Newton, 2-CG, 3-Damped MD
   EDIFFG = -0.02  force (eV/A) stopping-criterion for geometry steps
   ISIF = 3     (1:force\=y stress\=trace only ions\=y shape\=n volume\=n)
   ISYM = 1     (1-use symmetry, 0-no symmetry)
   ISMEAR = 0     (-1-Fermi, 1-Methfessel/Paxton)
   SIGMA = 0.05   broadening in eV
   LORBIT = 11
   NPAR = 4
   ISPIN = 2
   MAGMOM = 2*3

 POTCAR:    PAW_PBE Co 02Aug2007
 POTCAR:    PAW_PBE Co 02Aug2007
   VRHFIN =Co: d8 s1

   TITEL  = PAW_PBE Co 02Aug2007
   POMASS =   58.933; ZVAL   =    9.000    mass and valenz
   ENMAX  =  267.968; ENMIN  =  200.976 eV

  PAW_PBE Co 02Aug2007                  :

 POSCAR: Co hcp
  positions in direct lattice
 exchange correlation table for  LEXCH =        8
   RHO(1)=    0.500       N(1)  =     2000
   RHO(2)=  100.500       N(2)  =     4000

 ion  position               nearest neighbor table
   1  0.333  0.667  0.250-   2 2.47   2 2.47   2 2.47   2 2.47   2 2.47   2 2.47
   2  0.667  0.333  0.750-   1 2.47   1 2.47   1 2.47   1 2.47   1 2.47   1 2.47

  LATTYP: Found a hexagonal cell.
 ALAT       =     2.4719999032
 C/A-ratio  =     1.6266764715

  Lattice vectors:

 A1 = (   1.2359999516,  -2.1408147143,   0.0000000000)
 A2 = (   1.2359999516,   2.1408147143,   0.0000000000)
 A3 = (   0.0000000000,   0.0000000000,   4.0211440800)

Analysis of symmetry for initial positions (statically):
 Subroutine PRICEL returns:
 Original cell was already a primitive cell.

 Routine SETGRP: Setting up the symmetry group for a
 hexagonal supercell.

 Subroutine GETGRP returns: Found 24 space group operations
 (whereof 12 operations were pure point group operations)
 out of a pool of 24 trial point group operations.

The static configuration has the point symmetry D_3d.
 The point group associated with its full space group is D_6h.

Analysis of symmetry for dynamics (positions and initial velocities):
 Subroutine PRICEL returns:
 Original cell was already a primitive cell.

[...]

The dynamic configuration has the point symmetry D_3d.
 The point group associated with its full space group is D_6h.

Analysis of structural, dynamic, and magnetic symmetry:
 Subroutine PRICEL returns:
 Original cell was already a primitive cell.

 Routine SETGRP: Setting up the symmetry group for a
 hexagonal supercell.

 Subroutine GETGRP returns: Found 24 space group operations
 (whereof 12 operations were pure point group operations)
 out of a pool of 24 trial point group operations.

The overall configuration has the point symmetry D_3d.
 The point group associated with its full space group is D_6h.

 Subroutine INISYM returns: Found 24 space group operations
 (whereof 12 operations are pure point group operations),
 and found     1 'primitive' translations

                                     Primitive cell

  volume of cell :      21.2803

  direct lattice vectors                    reciprocal lattice vectors
     1.235999952 -2.140814714  0.000000000     0.404530760 -0.233555943  0.000000000
     1.235999952  2.140814714  0.000000000     0.404530760  0.233555943  0.000000000
     0.000000000  0.000000000  4.021144080     0.000000000  0.000000000  0.248685444

  length of vectors
     2.471999903  2.471999903  4.021144080     0.467111887  0.467111887  0.248685444

  position of ions in fractional coordinates (direct lattice)
     0.333333333  0.666666667  0.250000000
     0.666666667  0.333333333  0.750000000

  ion indices of the primitive-cell ions
   primitive index   ion index
                 1           1
                 2           2

 KPOINTS: Automatic mesh

Automatic generation of k-mesh.
 Grid dimensions read from file:
 generate k-points for:   12   12    8

 Generating k-lattice:

  Cartesian coordinates                     Fractional coordinates (reciprocal lattice)
     0.033710897 -0.019462995  0.000000000     0.083333333  0.000000000  0.000000000
     0.033710897  0.019462995  0.000000000     0.000000000  0.083333333  0.000000000
     0.000000000  0.000000000  0.031085680     0.000000000  0.000000000  0.125000000

  Length of vectors
     0.038925991  0.038925991  0.031085680

  Shift w.r.t. Gamma in fractional coordinates (k-lattice)
     0.000000000  0.000000000  0.000000000

 Subroutine IBZKPT returns following result:

 Found     95 irreducible k-points:

 Following reciprocal coordinates:
            Coordinates               Weight
  0.000000  0.000000  0.000000      1.000000
  0.083333  0.000000  0.000000      6.000000
  0.166667  0.000000  0.000000      6.000000
  0.250000  0.000000  0.000000      6.000000
  0.333333  0.000000  0.000000      6.000000
  0.416667  0.000000  0.000000      6.000000
  0.500000  0.000000  0.000000      3.000000
  0.083333  0.083333  0.000000      6.000000
  0.166667  0.083333  0.000000     12.000000
  0.250000  0.083333  0.000000     12.000000
  0.333333  0.083333  0.000000     12.000000
  0.416667  0.083333  0.000000     12.000000
  0.166667  0.166667  0.000000      6.000000
  0.250000  0.166667  0.000000     12.000000
  0.333333  0.166667  0.000000     12.000000
  0.416667  0.166667  0.000000      6.000000
  0.250000  0.250000  0.000000      6.000000
  0.333333  0.250000  0.000000     12.000000
  0.333333  0.333333  0.000000      2.000000
  0.000000  0.000000  0.125000      2.000000
  0.083333  0.000000  0.125000     12.000000
  0.166667  0.000000  0.125000     12.000000
  0.250000  0.000000  0.125000     12.000000
  0.333333  0.000000  0.125000     12.000000
  0.416667  0.000000  0.125000     12.000000
  0.500000  0.000000  0.125000      6.000000
  0.083333  0.083333  0.125000     12.000000
  0.166667  0.083333  0.125000     24.000000
  0.250000  0.083333  0.125000     24.000000
  0.333333  0.083333  0.125000     24.000000
  0.416667  0.083333  0.125000     24.000000
  0.166667  0.166667  0.125000     12.000000
  0.250000  0.166667  0.125000     24.000000
  0.333333  0.166667  0.125000     24.000000
  0.416667  0.166667  0.125000     12.000000
  0.250000  0.250000  0.125000     12.000000
  0.333333  0.250000  0.125000     24.000000
  0.333333  0.333333  0.125000      4.000000
  0.000000  0.000000  0.250000      2.000000
  0.083333  0.000000  0.250000     12.000000
  0.166667  0.000000  0.250000     12.000000
  0.250000  0.000000  0.250000     12.000000
  0.333333  0.000000  0.250000     12.000000
  0.416667  0.000000  0.250000     12.000000
  0.500000  0.000000  0.250000      6.000000
  0.083333  0.083333  0.250000     12.000000
  0.166667  0.083333  0.250000     24.000000
  0.250000  0.083333  0.250000     24.000000
  0.333333  0.083333  0.250000     24.000000
  0.416667  0.083333  0.250000     24.000000
  0.166667  0.166667  0.250000     12.000000
  0.250000  0.166667  0.250000     24.000000
  0.333333  0.166667  0.250000     24.000000
  0.416667  0.166667  0.250000     12.000000
  0.250000  0.250000  0.250000     12.000000
  0.333333  0.250000  0.250000     24.000000
  0.333333  0.333333  0.250000      4.000000
  0.000000  0.000000  0.375000      2.000000
  0.083333  0.000000  0.375000     12.000000
  0.166667  0.000000  0.375000     12.000000
[...]
  0.333333  0.000000  0.500000      6.000000
  0.416667  0.000000  0.500000      6.000000
  0.500000  0.000000  0.500000      3.000000
  0.083333  0.083333  0.500000      6.000000
  0.166667  0.083333  0.500000     12.000000
  0.250000  0.083333  0.500000     12.000000
  0.333333  0.083333  0.500000     12.000000
  0.416667  0.083333  0.500000     12.000000
  0.166667  0.166667  0.500000      6.000000
  0.250000  0.166667  0.500000     12.000000
  0.333333  0.166667  0.500000     12.000000
  0.416667  0.166667  0.500000      6.000000
  0.250000  0.250000  0.500000      6.000000
  0.333333  0.250000  0.500000     12.000000
  0.333333  0.333333  0.500000      2.000000

 Following cartesian coordinates:
            Coordinates               Weight
  0.000000  0.000000  0.000000      1.000000
  0.033711 -0.019463  0.000000      6.000000
  0.067422 -0.038926  0.000000      6.000000
  0.101133 -0.058389  0.000000      6.000000
  0.134844 -0.077852  0.000000      6.000000
  0.168554 -0.097315  0.000000      6.000000
  0.202265 -0.116778  0.000000      3.000000
  0.067422  0.000000  0.000000      6.000000
  0.101133 -0.019463  0.000000     12.000000
  0.134844 -0.038926  0.000000     12.000000
  0.168554 -0.058389  0.000000     12.000000
  0.202265 -0.077852  0.000000     12.000000
  0.134844  0.000000  0.000000      6.000000
  0.168554 -0.019463  0.000000     12.000000
  0.202265 -0.038926  0.000000     12.000000
  0.235976 -0.058389  0.000000      6.000000
  0.202265  0.000000  0.000000      6.000000
  0.235976 -0.019463  0.000000     12.000000
  0.269687  0.000000  0.000000      2.000000
  0.000000  0.000000  0.031086      2.000000
  0.033711 -0.019463  0.031086     12.000000
  0.067422 -0.038926  0.031086     12.000000
  0.101133 -0.058389  0.031086     12.000000
  0.134844 -0.077852  0.031086     12.000000
  0.168554 -0.097315  0.031086     12.000000
  0.202265 -0.116778  0.031086      6.000000
  0.067422  0.000000  0.031086     12.000000
  0.101133 -0.019463  0.031086     24.000000
  0.134844 -0.038926  0.031086     24.000000
  0.168554 -0.058389  0.031086     24.000000
  0.202265 -0.077852  0.031086     24.000000
  0.134844  0.000000  0.031086     12.000000
  0.168554 -0.019463  0.031086     24.000000
  0.202265 -0.038926  0.031086     24.000000
  0.235976 -0.058389  0.031086     12.000000
  0.202265  0.000000  0.031086     12.000000
  0.235976 -0.019463  0.031086     24.000000
  0.269687  0.000000  0.031086      4.000000
  0.000000  0.000000  0.062171      2.000000
  0.033711 -0.019463  0.062171     12.000000
  0.067422 -0.038926  0.062171     12.000000
  0.101133 -0.058389  0.062171     12.000000
  0.134844 -0.077852  0.062171     12.000000
  0.168554 -0.097315  0.062171     12.000000
  0.202265 -0.116778  0.062171      6.000000
  0.067422  0.000000  0.062171     12.000000
  0.101133 -0.019463  0.062171     24.000000
  0.134844 -0.038926  0.062171     24.000000
  0.168554 -0.058389  0.062171     24.000000
  0.202265 -0.077852  0.062171     24.000000
  0.134844  0.000000  0.062171     12.000000
  0.168554 -0.019463  0.062171     24.000000
  0.202265 -0.038926  0.062171     24.000000
  0.235976 -0.058389  0.062171     12.000000
  0.202265  0.000000  0.062171     12.000000
  0.235976 -0.019463  0.062171     24.000000
  0.269687  0.000000  0.062171      4.000000
[...]
 k-point  48 :   0.2500 0.0833 0.2500  plane waves:     421
 k-point  49 :   0.3333 0.0833 0.2500  plane waves:     422
 k-point  50 :   0.4167 0.0833 0.2500  plane waves:     429
 k-point  51 :   0.1667 0.1667 0.2500  plane waves:     418
 k-point  52 :   0.2500 0.1667 0.2500  plane waves:     419
 k-point  53 :   0.3333 0.1667 0.2500  plane waves:     421
 k-point  54 :   0.4167 0.1667 0.2500  plane waves:     423
 k-point  55 :   0.2500 0.2500 0.2500  plane waves:     422
 k-point  56 :   0.3333 0.2500 0.2500  plane waves:     425
 k-point  57 :   0.3333 0.3333 0.2500  plane waves:     426
 k-point  58 :   0.0000 0.0000 0.3750  plane waves:     410
 k-point  59 :   0.0833 0.0000 0.3750  plane waves:     420
 k-point  60 :   0.1667 0.0000 0.3750  plane waves:     425
[...]
 k-point  81 :   0.3333 0.0000 0.5000  plane waves:     426
 k-point  82 :   0.4167 0.0000 0.5000  plane waves:     426
 k-point  83 :   0.5000 0.0000 0.5000  plane waves:     432
 k-point  84 :   0.0833 0.0833 0.5000  plane waves:     420
 k-point  85 :   0.1667 0.0833 0.5000  plane waves:     420
 k-point  86 :   0.2500 0.0833 0.5000  plane waves:     424
 k-point  87 :   0.3333 0.0833 0.5000  plane waves:     424
 k-point  88 :   0.4167 0.0833 0.5000  plane waves:     424
 k-point  89 :   0.1667 0.1667 0.5000  plane waves:     424
 k-point  90 :   0.2500 0.1667 0.5000  plane waves:     428
 k-point  91 :   0.3333 0.1667 0.5000  plane waves:     420
 k-point  92 :   0.4167 0.1667 0.5000  plane waves:     416
 k-point  93 :   0.2500 0.2500 0.5000  plane waves:     428
 k-point  94 :   0.3333 0.2500 0.5000  plane waves:     424
 k-point  95 :   0.3333 0.3333 0.5000  plane waves:     432

 maximum and minimum number of plane-waves per node :        80       59

 maximum number of plane-waves:       438
 maximum index in each direction:
   IXMAX=    4   IYMAX=    4   IZMAX=    6
   IXMIN=   -4   IYMIN=   -4   IZMIN=   -7

 parallel 3D FFT for wavefunctions:
    minimum data exchange during FFTs selected (reduces bandwidth)
 parallel 3D FFT for charge:
    minimum data exchange during FFTs selected (reduces bandwidth)

 Broyden mixing: mesh for mixing (old mesh)
   NGX =  9   NGY =  9   NGZ = 13
  (NGX  = 36   NGY  = 36   NGZ  = 56)
  gives a total of   1053 points

 initial charge density was supplied:
 charge density of overlapping atoms calculated
 number of electron      18.0000000 magnetization       6.0000000
 keeping initial charge density in first step

 Maximum index for augmentation-charges         1066 (set IRDMAX)

 First call to EWALD:  gamma=   0.640
 Maximum number of real-space cells 3x 3x 2
 Maximum number of reciprocal cells 3x 3x 4

--------------------------------------- Iteration      1(   1)  ---------------------------------------

 eigenvalue-minimisations  :  6328
 total energy-change (2. order) : 0.6864829E+02  (-0.7462513E+03)
 number of electron      18.0000000 magnetization       6.0000000
 augmentation part       18.0000000 magnetization       6.0000000

 Free energy of the ion-electron system (eV)
  alpha Z        PSCENC =        79.61870385
  Ewald energy   TEWEN  =     -1531.60263765
  -Hartree energ DENC   =      -295.86427829
  -exchange      EXHF   =         0.00000000
  -V(xc)+E(xc)   XCENC  =        35.75670864
  PAW double counting   =      1439.98163886    -1545.88690193
  entropy T*S    EENTRO =        -0.00160404
  eigenvalues    EBANDS =       259.92342659
  atomic energy  EATOM  =      1626.72322989
  Solvation  Ediel_sol  =         0.00000000
  free energy    TOTEN  =        68.64828591 eV

  energy without entropy =       68.64988996  energy(sigma->0) =       68.64908793

[...]

 eigenvalue-minimisations  :  6104
 total energy-change (2. order) :-0.8229699E+02  (-0.7583828E+02)
 number of electron      18.0000000 magnetization       6.0000000
 augmentation part       18.0000000 magnetization       6.0000000

[...]

 Broyden mixing:
  rms(total) = 0.16478E+01    rms(broyden)= 0.16478E+01
  rms(prec ) = 0.27116E+01
  weight for this iteration     100.00

[...]

 eigenvalues of (default mixing * dielectric matrix)
  average eigenvalue GAMMA=   0.9197
  0.9197

[...]

 average (electrostatic) potential at core
  the test charge radii are     1.0452
  (the norm of the test charge is              1.0000)
       1 -78.0366       2 -78.0366

 E-fermi :  10.5061     XC(G=0): -13.5208     alpha+bet :-18.0772

 Fermi energy:        10.5061006227

 spin component 1

 k-point     1 :       0.0000    0.0000    0.0000
  band No.  band energies     occupation
      1       1.5099      1.00000
      2       5.2977      1.00000
      3       7.8505      1.00000
      4       7.9040      1.00000
      5       7.9040      1.00000
      6       8.2189      1.00000
      7       8.2189      1.00000
      8       8.6068      1.00000
      9       8.6068      1.00000
     10       9.7155      1.00000
     11       9.7155      1.00000
     12      10.3844      0.99971
     13      16.9650      0.00000
     14      32.7567      0.00000
     15      35.5611      0.00000
     16      35.5614      0.00000

[...]

 k-point    95 :       0.3333    0.3333    0.5000
  band No.  band energies     occupation
      1       6.6256      1.00000
      2       6.6256      1.00000
      3       6.7568      1.00000
      4       6.7568      1.00000
      5       7.5474      1.00000
      6       7.5474      1.00000
      7       8.6148      1.00000
      8       8.6148      1.00000
      9       9.7707      1.00000
     10       9.7707      1.00000
     11      16.3767      0.00000
     12      16.3767      0.00000
     13      17.9841      0.00000
     14      17.9841      0.00000
     15      20.3151      0.00000
     16      20.3151      0.00000
 Fermi energy:        10.5061006227

[...]

 soft charge-density along one line, spin component           1
         0         1         2         3         4         5         6         7         8         9
 total charge-density along one line

[...]

------------------------ aborting loop because EDIFF is reached ----------------------------------------

 total charge

# of ion       s       p       d       tot
    1        0.498   0.541   7.271   8.310
    2        0.498   0.541   7.271   8.310
tot          0.995   1.082  14.542  16.619

 magnetization (x)

[...]

  FORCE on cell =-STRESS in cart. coord.  units (eV):
  Direction    XX          YY          ZZ          XY          YZ          ZX
  Alpha Z    79.61870    79.61870    79.61870
  Ewald    -511.71047  -511.71047  -508.18277     0.00000     0.00000    -0.00000
  Hartree    86.25320    86.25320    88.01919    -0.00000     0.00000    -0.00000
  E(xc)     -92.66170   -92.66169   -92.66190    -0.00000    -0.00000    -0.00000
  Local     -15.31927   -15.31917   -20.52543    -0.00000     0.00000     0.00000
  n-local   -14.62380    -3.25472    -9.08685     3.34728    -0.61409     2.37315
  augment   310.78659   310.78651   310.75320     0.00000     0.00000    -0.00000
  Kinetic   155.50682   149.64665   152.29738    -3.30350    -0.62039     0.51109
  Fock        0.00000     0.00000     0.00000     0.00000     0.00000     0.00000
  Total       0.60455     0.60455     0.23152     0.00000     0.00000     0.00000
  in kB      45.51582    45.51582    17.43070     0.00000     0.00000     0.00000

 VOLUME and BASIS-vectors are now :
  energy-cutoff  :      425.00
  volume of cell :       21.28
      direct lattice vectors                 reciprocal lattice vectors
     1.235999952 -2.140814714  0.000000000     0.404530760 -0.233555943  0.000000000
     1.235999952  2.140814714  0.000000000     0.404530760  0.233555943  0.000000000
     0.000000000  0.000000000  4.021144080     0.000000000  0.000000000  0.248685444

[...]

 FORCES acting on ions
    electron-ion (+dipol)            ewald-force                    non-local-force                 convergence-correction
   0.670E-12 -.100E-06 -.865E-12   -.138E-13 0.239E-11 -.240E-13   -.520E-17 -.347E-17 0.000E+00   -.880E-14 -.250E-08 -.959E-13
   0.320E-12 0.100E-06 -.524E-11   0.114E-13 -.239E-11 0.240E-13   -.520E-17 0.347E-17 0.000E+00   -.946E-14 0.250E-08 0.696E-13
   0.991E-12 0.345E-10 -.610E-11   -.234E-14 0.772E-15 0.000E+00   -.104E-16 0.000E+00 0.000E+00   -.183E-13 -.381E-13 -.263E-13

 POSITION                                       TOTAL-FORCE (eV/Angst)
      1.23600      0.71360      1.00529         0.000000      0.000000      0.000000
      1.23600     -0.71360      3.01586        -0.000000     -0.000000     -0.000000
    total drift:                                0.000000      0.000000     -0.000000

  FREE ENERGIE OF THE ION-ELECTRON SYSTEM (eV)
  free  energy   TOTEN  =       -14.06049484 eV

  energy  without entropy=      -14.05893755  energy(sigma->0) =      -14.05971620

[...]

 d Force = 0.0000000E+00[ 0.000E+00, 0.000E+00]  d Energy = 0.2175251E-03-0.218E-03
 d Force = 0.0000000E+00[ 0.000E+00, 0.000E+00]  d Ewald  =-0.1756141E+02 0.176E+02

 Steepest descent step on ions:
 trial-energy change:   -0.000218  1 .order   -0.000802   -0.018924    0.017321
  (g-gl).g = 0.189E-01      g.g   = 0.189E-01  gl.gl    = 0.000E+00
 g(Force)  = 0.701E-49   g(Stress)= 0.189E-01 ortho     = 0.000E+00
 gamma     =   0.00000
 trial     =   1.00000
 opt step  =   0.49794  (harmonic =   0.52212) maximal distance =0.00000000
 next E    =   -14.065134   (d E  =  -0.00464)

[...]

 d Force = 0.0000000E+00[ 0.000E+00, 0.000E+00]  d Energy = 0.4446220E-02-0.445E-02
 d Force = 0.0000000E+00[ 0.000E+00, 0.000E+00]  d Ewald  = 0.8767000E+01-0.877E+01

[...]

 d Force = 0.0000000E+00[ 0.000E+00, 0.000E+00]  d Energy =-0.9339023E-05 0.934E-05
 d Force = 0.0000000E+00[ 0.000E+00, 0.000E+00]  d Ewald  = 0.3854075E+00-0.385E+00

[...]

 d Force = 0.0000000E+00[ 0.000E+00, 0.000E+00]  d Energy = 0.3039665E-06-0.304E-06
 d Force = 0.0000000E+00[ 0.000E+00, 0.000E+00]  d Ewald  =-0.5471833E-01 0.547E-01

[...]

 eigenvalue-minimisations  :  6696
 total energy-change (2. order) :-0.1555251E-02  (-0.4160968E-02)
 number of electron      17.9999994 magnetization       3.2390310
 augmentation part       10.2430345 magnetization       2.9207483

[...]

 Broyden mixing:
  rms(total) = 0.37500E-03    rms(broyden)= 0.37497E-03
  rms(prec ) = 0.45546E-03
  weight for this iteration     100.00

 eigenvalues of (default mixing * dielectric matrix)
  average eigenvalue GAMMA=   1.1576
  2.1917  1.1464  1.1464  0.6518  0.6518

[...]

--------------------------------------- Iteration      8(   7)  ---------------------------------------

 eigenvalue-minimisations  :  3048
 total energy-change (2. order) : 0.2187155E-06  (-0.3892145E-07)
 number of electron      17.9999994 magnetization       3.2404686
 augmentation part       10.2541496 magnetization       2.9218434

 Free energy of the ion-electron system (eV)
  alpha Z        PSCENC =        78.34771475
  Ewald energy   TEWEN  =     -1523.37454503
  -Hartree energ DENC   =      -263.96936500
  -exchange      EXHF   =         0.00000000
  -V(xc)+E(xc)   XCENC  =        32.86582877
  PAW double counting   =      1810.01472392    -1916.04258875
  entropy T*S    EENTRO =        -0.00172421
  eigenvalues    EBANDS =       141.37133095
  atomic energy  EATOM  =      1626.72322989
  Solvation  Ediel_sol  =         0.00000000
  free energy    TOTEN  =       -14.06539472 eV

  energy without entropy =      -14.06367051  energy(sigma->0) =      -14.06453262

 average (electrostatic) potential at core
  the test charge radii are     1.0452
  (the norm of the test charge is              1.0000)
       1 -78.2556       2 -78.2556

 E-fermi :  10.2667     XC(G=0): -13.4255     alpha+bet :-17.7886

 Fermi energy:        10.2666951531

[...]

 k-point    95 :       0.3333    0.3333    0.5000
  band No.  band energies     occupation
      1       6.4438      1.00000
      2       6.4438      1.00000
      3       6.5770      1.00000
      4       6.5770      1.00000
      5       7.3502      1.00000
      6       7.3502      1.00000
      7       8.3977      1.00000
      8       8.3977      1.00000
      9       9.5135      1.00000
     10       9.5135      1.00000
     11      16.0074      0.00000
     12      16.0074      0.00000
     13      17.6220      0.00000
     14      17.6220      0.00000
     15      19.8757      0.00000
     16      19.8757      0.00000
 Fermi energy:        10.2666951531

 spin component 2

[...]

 k-point    95 :       0.3333    0.3333    0.5000
  band No.  band energies     occupation
      1       7.7122      1.00000
      2       7.7122      1.00000
      3       7.7800      1.00000
      4       7.7800      1.00000
      5       8.5700      1.00000
      6       8.5700      1.00000
      7      10.1223      0.99998
      8      10.1223      0.99998
      9      11.3818      0.00000
     10      11.3818      0.00000
     11      16.6390      0.00000
     12      16.6390      0.00000
     13      18.3340      0.00000
     14      18.3340      0.00000
     15      20.5531      0.00000
     16      20.5531      0.00000

[...]

 soft charge-density along one line, spin component           2
         0         1         2         3         4         5         6         7         8         9
 total charge-density along one line

------------------------ aborting loop because EDIFF is reached ----------------------------------------

[...]

  FORCE on cell =-STRESS in cart. coord.  units (eV):
  Direction    XX          YY          ZZ          XY          YZ          ZX
  Alpha Z    78.34771    78.34771    78.34771
  Ewald    -510.70780  -510.70780  -501.96001    -0.00000    -0.00000    -0.00000
  Hartree    86.64959    86.64959    90.66874     0.00000    -0.00000    -0.00000
  E(xc)     -92.54491   -92.54490   -92.55515     0.00000     0.00000    -0.00000
  Local     -15.28467   -15.28456   -27.86082    -0.00000     0.00000     0.00000
  n-local   -15.07881    -4.10028    -9.49558     3.27860    -0.61389     2.38166
  augment   310.98319   310.98312   310.91469     0.00000     0.00000     0.00000
  Kinetic   155.03708   149.26327   151.94376    -3.22361    -0.61650     0.50829
  Fock        0.00000     0.00000     0.00000     0.00000     0.00000     0.00000
  Total       0.00377     0.00377     0.00336     0.00000     0.00000     0.00000
  in kB       0.27967     0.27967     0.24860     0.00000     0.00000     0.00000

 VOLUME and BASIS-vectors are now :
  energy-cutoff  :      425.00
  volume of cell :       21.63
      direct lattice vectors                 reciprocal lattice vectors
     1.246137805 -2.158373991 -0.000000000     0.401239733 -0.231655868 -0.000000000
     1.246137805  2.158373991  0.000000000     0.401239733  0.231655868 -0.000000000
     0.000000000  0.000000000  4.020158428    -0.000000000 -0.000000000  0.248746416

  length of vectors
     2.492275610  2.492275610  4.020158428     0.463311736  0.463311736  0.248746416

 FORCES acting on ions
    electron-ion (+dipol)            ewald-force                    non-local-force                 convergence-correction
   -.405E-12 -.112E-06 -.875E-12   0.139E-13 0.242E-11 -.225E-13   0.520E-17 0.173E-16 0.000E+00   0.340E-13 0.217E-08 -.469E-13
   0.134E-11 0.112E-06 -.520E-11   0.145E-13 -.243E-11 0.225E-13   0.694E-17 -.208E-16 0.000E+00   -.394E-13 -.217E-08 0.215E-13
   0.938E-12 0.348E-10 -.608E-11   0.284E-13 -.301E-14 0.418E-16   0.121E-16 -.347E-17 0.000E+00   -.540E-14 -.178E-13 -.254E-13

 POSITION                                       TOTAL-FORCE (eV/Angst)
      1.24614      0.71946      1.00504         0.000000     -0.000000      0.000000
      1.24614     -0.71946      3.01512        -0.000000      0.000000     -0.000000
    total drift:                                0.000000      0.000000     -0.000000

  FREE ENERGIE OF THE ION-ELECTRON SYSTEM (eV)
  free  energy   TOTEN  =       -14.06539472 eV

  energy  without entropy=      -14.06367051  energy(sigma->0) =      -14.06453262

 d Force = 0.0000000E+00[ 0.000E+00, 0.000E+00]  d Energy = 0.2377979E-03-0.238E-03
 d Force = 0.0000000E+00[ 0.000E+00, 0.000E+00]  d Ewald  = 0.5116042E+00-0.512E+00

 Conjugate gradient step on ions:
 trial-energy change:   -0.000238  1 .order   -0.000243   -0.000489    0.000003
  (g-gl).g = 0.567E-03      g.g   = 0.545E-03  gl.gl    = 0.189E-01
 g(Force)  = 0.264E-47   g(Stress)= 0.545E-03 ortho     =-0.226E-04
 gamma     =   0.02997
 trial     =   0.89897
 opt step  =   0.89374  (harmonic =   0.89408) maximal distance =0.00000000
 next E    =   -14.065395   (d E  =  -0.00024)

 reached required accuracy - stopping structural energy minimisation

 total charge

[...]

 magnetization (x)

# of ion       s       p       d       tot
    1       -0.015  -0.054   1.708   1.639
    2       -0.015  -0.054   1.708   1.639
tot         -0.029  -0.108   3.415   3.278