 vasp.6.3.2 27Jun22 (build Aug 12 2022 00:53:59) complex

 executed on               tv2STD date 2024.11.30  16:03:09

 INCAR:
   SYSTEM = Pt-hcc
   NWRITE = 2    write-flag
   ISTART = 0    job   : 0-new, 1-cont, 2-samecut
   ICHARG = 2    charge: 0-wave, 1-file, 2-atom, >10-const
   INIWAV = 1    electr: 0-lowe 1-rand  2-diag
   ENCUT = 450.0     energy cutoff in eV
   PREC = Accurate      normal | accurate
   ADDGRID = .FALSE.  (use fine grid)
   NELM = 100     number of ELM steps
   EDIFF = 1E-06    energy stopping-criterion for ELM
   LREAL = .FALSE.      real-space projection (.FALSE., .TRUE., On, Auto)
   ALGO = Normal     Normal, Fast, Very_Fast
   LWAVE = .FALSE.
   LCHARG = .FALSE.
   NSW = 0       max number of geometry steps
   IBRION = -1     ionic relax: 0-MD, 1-quasi-Newton, 2-CG, 3-Damped MD
   EDIFFG = -0.02  force (eV/A) stopping-criterion for geometry steps
   ISIF = 2     (1:force\=y stress\=trace only ions\=y shape\=n volume\=n)
   ISYM = 1     (1-use symmetry, 0-no symmetry)
   ISMEAR = 0     (-1-Fermi, 1-Methfessel/Paxton)
   SIGMA = 0.05   broadening in eV

 POTCAR:    PAW_PBE Pt_pv 12Dec2005
 POTCAR:    PAW_PBE Pt_pv 12Dec2005
   VRHFIN =Pt: 5ps1d9

   TITEL  = PAW_PBE Pt_pv 12Dec2005
   POMASS =  195.080; ZVAL   =   16.000    mass and valenz
   ENMAX  =  294.607; ENMIN  =  220.955 eV

  PAW_PBE Pt_pv 12Dec2005               :

 POSCAR: Pt
  positions in cartesian coordinates
 exchange correlation table for  LEXCH =        8
   RHO(1)=    0.500       N(1)  =     2000
   RHO(2)=  100.500       N(2)  =     4000

 ion  position               nearest neighbor table
   1  0.000  0.000  0.000-
   2  0.333  0.667  0.500-

  LATTYP: Found a hexagonal cell.
 ALAT       =     2.7600000000
 C/A-ratio  =     1.7355072464

  Lattice vectors:

 A1 = (   2.7600000000,   0.0000000000,   0.0000000000)
 A2 = (  -1.3800000000,   2.3902301144,   0.0000000000)
 A3 = (   0.0000000000,   0.0000000000,   4.7900000000)

Analysis of symmetry for initial positions (statically):
 Subroutine PRICEL returns:
 Original cell was already a primitive cell.

 Routine SETGRP: Setting up the symmetry group for a
 hexagonal supercell.

 Subroutine GETGRP returns: Found 24 space group operations
 (whereof 12 operations were pure point group operations)
 out of a pool of 24 trial point group operations.

The static configuration has the point symmetry D_3h.
 The point group associated with its full space group is D_6h.

Analysis of symmetry for dynamics (positions and initial velocities):
 Subroutine PRICEL returns:
 Original cell was already a primitive cell.

 Routine SETGRP: Setting up the symmetry group for a
 hexagonal supercell.

 Subroutine GETGRP returns: Found 24 space group operations
 (whereof 12 operations were pure point group operations)
 out of a pool of 24 trial point group operations.

The dynamic configuration has the point symmetry D_3h.
 The point group associated with its full space group is D_6h.

 Subroutine INISYM returns: Found 24 space group operations
 (whereof 12 operations are pure point group operations),
 and found     1 'primitive' translations

                                     Primitive cell

  volume of cell :      31.5998

  direct lattice vectors                    reciprocal lattice vectors
     2.760000000  0.000000000  0.000000000     0.362318841  0.209184880  0.000000000
    -1.380000000  2.390230114  0.000000000     0.000000000  0.418369760  0.000000000
     0.000000000  0.000000000  4.790000000     0.000000000  0.000000000  0.208768267

  length of vectors
     2.760000000  2.760000000  4.790000000     0.418369760  0.418369760  0.208768267

  position of ions in fractional coordinates (direct lattice)
     0.000000000  0.000000000  0.000000000
     0.333333333  0.666666667  0.500000000

  ion indices of the primitive-cell ions
   primitive index   ion index
                 1           1
                 2           2

 KPOINTS: Automatic mesh

Automatic generation of k-mesh.
 Grid dimensions read from file:
 generate k-points for:   12   12    8

 Generating k-lattice:

  Cartesian coordinates                     Fractional coordinates (reciprocal lattice)
     0.030193237  0.017432073  0.000000000     0.083333333  0.000000000  0.000000000
     0.000000000  0.034864147  0.000000000     0.000000000  0.083333333  0.000000000
     0.000000000  0.000000000  0.026096033     0.000000000  0.000000000  0.125000000

  Length of vectors
     0.034864147  0.034864147  0.026096033

  Shift w.r.t. Gamma in fractional coordinates (k-lattice)
     0.000000000  0.000000000  0.000000000

 Subroutine IBZKPT returns following result:

 Found     95 irreducible k-points:

 Following reciprocal coordinates:
            Coordinates               Weight
  0.000000  0.000000  0.000000      1.000000
  0.083333  0.000000  0.000000      6.000000
  0.166667  0.000000  0.000000      6.000000
  0.250000 -0.000000  0.000000      6.000000
  0.333333  0.000000  0.000000      6.000000
  0.416667 -0.000000  0.000000      6.000000
  0.500000 -0.000000  0.000000      3.000000
  0.083333  0.083333  0.000000      6.000000
  0.166667  0.083333  0.000000     12.000000
  0.250000  0.083333  0.000000     12.000000
  0.333333  0.083333  0.000000     12.000000
  0.416667  0.083333  0.000000     12.000000
  0.166667  0.166667  0.000000      6.000000
  0.250000  0.166667  0.000000     12.000000
  0.333333  0.166667  0.000000     12.000000
  0.416667  0.166667  0.000000      6.000000
  0.250000  0.250000  0.000000      6.000000
  0.333333  0.250000  0.000000     12.000000
  0.333333  0.333333  0.000000      2.000000
  0.000000  0.000000  0.125000      2.000000
  0.083333  0.000000  0.125000     12.000000
  0.166667  0.000000  0.125000     12.000000
  0.250000 -0.000000  0.125000     12.000000
  0.333333  0.000000  0.125000     12.000000
  0.416667 -0.000000  0.125000     12.000000
  0.500000 -0.000000  0.125000      6.000000
  0.083333  0.083333  0.125000     12.000000
  0.166667  0.083333  0.125000     24.000000
  0.250000  0.083333  0.125000     24.000000
  0.333333  0.083333  0.125000     24.000000
  0.416667  0.083333  0.125000     24.000000
  0.166667  0.166667  0.125000     12.000000
  0.250000  0.166667  0.125000     24.000000
  0.333333  0.166667  0.125000     24.000000
  0.416667  0.166667  0.125000     12.000000
  0.250000  0.250000  0.125000     12.000000
  0.333333  0.250000  0.125000     24.000000
  0.333333  0.333333  0.125000      4.000000
  0.000000  0.000000  0.250000      2.000000
  0.083333  0.000000  0.250000     12.000000
  0.166667  0.000000  0.250000     12.000000
  0.250000 -0.000000  0.250000     12.000000
  0.333333  0.000000  0.250000     12.000000
  0.416667 -0.000000  0.250000     12.000000
  0.500000 -0.000000  0.250000      6.000000
  0.083333  0.083333  0.250000     12.000000
  0.166667  0.083333  0.250000     24.000000
  0.250000  0.083333  0.250000     24.000000
  0.333333  0.083333  0.250000     24.000000
  0.416667  0.083333  0.250000     24.000000
  0.166667  0.166667  0.250000     12.000000
  0.250000  0.166667  0.250000     24.000000
  0.333333  0.166667  0.250000     24.000000
  0.416667  0.166667  0.250000     12.000000
  0.250000  0.250000  0.250000     12.000000
  0.333333  0.250000  0.250000     24.000000
  0.333333  0.333333  0.250000      4.000000
  0.000000  0.000000  0.375000      2.000000
  0.083333  0.000000  0.375000     12.000000
  0.166667  0.000000  0.375000     12.000000
[...]
  0.333333  0.000000  0.500000      6.000000
  0.416667 -0.000000  0.500000      6.000000
  0.500000 -0.000000  0.500000      3.000000
  0.083333  0.083333  0.500000      6.000000
  0.166667  0.083333  0.500000     12.000000
  0.250000  0.083333  0.500000     12.000000
  0.333333  0.083333  0.500000     12.000000
  0.416667  0.083333  0.500000     12.000000
  0.166667  0.166667  0.500000      6.000000
  0.250000  0.166667  0.500000     12.000000
  0.333333  0.166667  0.500000     12.000000
  0.416667  0.166667  0.500000      6.000000
  0.250000  0.250000  0.500000      6.000000
  0.333333  0.250000  0.500000     12.000000
  0.333333  0.333333  0.500000      2.000000

 Following cartesian coordinates:
            Coordinates               Weight
  0.000000  0.000000  0.000000      1.000000
  0.030193  0.017432  0.000000      6.000000
  0.060386  0.034864  0.000000      6.000000
  0.090580  0.052296  0.000000      6.000000
  0.120773  0.069728  0.000000      6.000000
  0.150966  0.087160  0.000000      6.000000
  0.181159  0.104592  0.000000      3.000000
  0.030193  0.052296  0.000000      6.000000
  0.060386  0.069728  0.000000     12.000000
  0.090580  0.087160  0.000000     12.000000
  0.120773  0.104592  0.000000     12.000000
  0.150966  0.122025  0.000000     12.000000
  0.060386  0.104592  0.000000      6.000000
  0.090580  0.122025  0.000000     12.000000
  0.120773  0.139457  0.000000     12.000000
  0.150966  0.156889  0.000000      6.000000
  0.090580  0.156889  0.000000      6.000000
  0.120773  0.174321  0.000000     12.000000
  0.120773  0.209185  0.000000      2.000000
  0.000000  0.000000  0.026096      2.000000
  0.030193  0.017432  0.026096     12.000000
  0.060386  0.034864  0.026096     12.000000
  0.090580  0.052296  0.026096     12.000000
  0.120773  0.069728  0.026096     12.000000
  0.150966  0.087160  0.026096     12.000000
  0.181159  0.104592  0.026096      6.000000
  0.030193  0.052296  0.026096     12.000000
  0.060386  0.069728  0.026096     24.000000
  0.090580  0.087160  0.026096     24.000000
  0.120773  0.104592  0.026096     24.000000
  0.150966  0.122025  0.026096     24.000000
  0.060386  0.104592  0.026096     12.000000
  0.090580  0.122025  0.026096     24.000000
  0.120773  0.139457  0.026096     24.000000
  0.150966  0.156889  0.026096     12.000000
  0.090580  0.156889  0.026096     12.000000
  0.120773  0.174321  0.026096     24.000000
  0.120773  0.209185  0.026096      4.000000
  0.000000  0.000000  0.052192      2.000000
  0.030193  0.017432  0.052192     12.000000
  0.060386  0.034864  0.052192     12.000000
  0.090580  0.052296  0.052192     12.000000
  0.120773  0.069728  0.052192     12.000000
  0.150966  0.087160  0.052192     12.000000
  0.181159  0.104592  0.052192      6.000000
  0.030193  0.052296  0.052192     12.000000
  0.060386  0.069728  0.052192     24.000000
  0.090580  0.087160  0.052192     24.000000
  0.120773  0.104592  0.052192     24.000000
  0.150966  0.122025  0.052192     24.000000
  0.060386  0.104592  0.052192     12.000000
  0.090580  0.122025  0.052192     24.000000
  0.120773  0.139457  0.052192     24.000000
  0.150966  0.156889  0.052192     12.000000
  0.090580  0.156889  0.052192     12.000000
  0.120773  0.174321  0.052192     24.000000
  0.120773  0.209185  0.052192      4.000000
  0.000000  0.000000  0.078288      2.000000
  0.030193  0.017432  0.078288     12.000000
  0.060386  0.034864  0.078288     12.000000
[...]
  0.120773  0.069728  0.104384      6.000000
  0.150966  0.087160  0.104384      6.000000
  0.181159  0.104592  0.104384      3.000000
  0.030193  0.052296  0.104384      6.000000
  0.060386  0.069728  0.104384     12.000000
  0.090580  0.087160  0.104384     12.000000
[...]
   0.33333333  0.08333333  0.00000000       0.010
   0.41666667  0.08333333  0.00000000       0.010
   0.16666667  0.16666667  0.00000000       0.005
   0.25000000  0.16666667  0.00000000       0.010
   0.33333333  0.16666667  0.00000000       0.010
   0.41666667  0.16666667  0.00000000       0.005
   0.25000000  0.25000000  0.00000000       0.005
   0.33333333  0.25000000  0.00000000       0.010
   0.33333333  0.33333333  0.00000000       0.002
   0.00000000  0.00000000  0.12500000       0.002
   0.08333333  0.00000000  0.12500000       0.010
   0.16666667  0.00000000  0.12500000       0.010
   0.25000000 -0.00000000  0.12500000       0.010
   0.33333333  0.00000000  0.12500000       0.010
   0.41666667 -0.00000000  0.12500000       0.010
   0.50000000 -0.00000000  0.12500000       0.005
   0.08333333  0.08333333  0.12500000       0.010
   0.16666667  0.08333333  0.12500000       0.021
   0.25000000  0.08333333  0.12500000       0.021
   0.33333333  0.08333333  0.12500000       0.021
   0.41666667  0.08333333  0.12500000       0.021
   0.16666667  0.16666667  0.12500000       0.010
   0.25000000  0.16666667  0.12500000       0.021
   0.33333333  0.16666667  0.12500000       0.021
   0.41666667  0.16666667  0.12500000       0.010
   0.25000000  0.25000000  0.12500000       0.010
   0.33333333  0.25000000  0.12500000       0.021
   0.33333333  0.33333333  0.12500000       0.003
   0.00000000  0.00000000  0.25000000       0.002
   0.08333333  0.00000000  0.25000000       0.010
   0.16666667  0.00000000  0.25000000       0.010
   0.25000000 -0.00000000  0.25000000       0.010
   0.33333333  0.00000000  0.25000000       0.010
   0.41666667 -0.00000000  0.25000000       0.010
   0.50000000 -0.00000000  0.25000000       0.005
   0.08333333  0.08333333  0.25000000       0.010
   0.16666667  0.08333333  0.25000000       0.021
   0.25000000  0.08333333  0.25000000       0.021
   0.33333333  0.08333333  0.25000000       0.021
   0.41666667  0.08333333  0.25000000       0.021
   0.16666667  0.16666667  0.25000000       0.010
   0.25000000  0.16666667  0.25000000       0.021
   0.33333333  0.16666667  0.25000000       0.021
   0.41666667  0.16666667  0.25000000       0.010
   0.25000000  0.25000000  0.25000000       0.010
   0.33333333  0.25000000  0.25000000       0.021
   0.33333333  0.33333333  0.25000000       0.003
   0.00000000  0.00000000  0.37500000       0.002
   0.08333333  0.00000000  0.37500000       0.010
   0.16666667  0.00000000  0.37500000       0.010
[...]
   0.33333333  0.00000000  0.50000000       0.005
   0.41666667 -0.00000000  0.50000000       0.005
   0.50000000 -0.00000000  0.50000000       0.003
   0.08333333  0.08333333  0.50000000       0.005
   0.16666667  0.08333333  0.50000000       0.010
   0.25000000  0.08333333  0.50000000       0.010
   0.33333333  0.08333333  0.50000000       0.010
   0.41666667  0.08333333  0.50000000       0.010
   0.16666667  0.16666667  0.50000000       0.005
   0.25000000  0.16666667  0.50000000       0.010
   0.33333333  0.16666667  0.50000000       0.010
   0.41666667  0.16666667  0.50000000       0.005
   0.25000000  0.25000000  0.50000000       0.005
   0.33333333  0.25000000  0.50000000       0.010
   0.33333333  0.33333333  0.50000000       0.002

 position of ions in fractional coordinates (direct lattice)
   0.00000000  0.00000000  0.00000000
   0.33333333  0.66666667  0.50000000

 position of ions in cartesian coordinates  (Angst):
   0.00000000  0.00000000  0.00000000
   0.00000000  1.59348674  2.39500000

 k-point   1 :   0.0000 0.0000 0.0000  plane waves:     713
 k-point   2 :   0.0833 0.0000 0.0000  plane waves:     693
 k-point   3 :   0.1667 0.0000 0.0000  plane waves:     690
 k-point   4 :   0.2500-0.0000 0.0000  plane waves:     682
 k-point   5 :   0.3333 0.0000 0.0000  plane waves:     692
 k-point   6 :   0.4167-0.0000 0.0000  plane waves:     690
 k-point   7 :   0.5000-0.0000 0.0000  plane waves:     700
 k-point   8 :   0.0833 0.0833 0.0000  plane waves:     689
 k-point   9 :   0.1667 0.0833 0.0000  plane waves:     689
 k-point  10 :   0.2500 0.0833 0.0000  plane waves:     682
 k-point  11 :   0.3333 0.0833 0.0000  plane waves:     684
 k-point  12 :   0.4167 0.0833 0.0000  plane waves:     687
 k-point  13 :   0.1667 0.1667 0.0000  plane waves:     689
 k-point  14 :   0.2500 0.1667 0.0000  plane waves:     682
 k-point  15 :   0.3333 0.1667 0.0000  plane waves:     681
 k-point  16 :   0.4167 0.1667 0.0000  plane waves:     680
 k-point  17 :   0.2500 0.2500 0.0000  plane waves:     673
 k-point  18 :   0.3333 0.2500 0.0000  plane waves:     691
 k-point  19 :   0.3333 0.3333 0.0000  plane waves:     681
 k-point  20 :   0.0000 0.0000 0.1250  plane waves:     689
 k-point  21 :   0.0833 0.0000 0.1250  plane waves:     691
 k-point  22 :   0.1667 0.0000 0.1250  plane waves:     685
 k-point  23 :   0.2500-0.0000 0.1250  plane waves:     679
 k-point  24 :   0.3333 0.0000 0.1250  plane waves:     683
 k-point  25 :   0.4167-0.0000 0.1250  plane waves:     690
 k-point  26 :   0.5000-0.0000 0.1250  plane waves:     694
 k-point  27 :   0.0833 0.0833 0.1250  plane waves:     687
 k-point  28 :   0.1667 0.0833 0.1250  plane waves:     684
 k-point  29 :   0.2500 0.0833 0.1250  plane waves:     684
 k-point  30 :   0.3333 0.0833 0.1250  plane waves:     688
 k-point  31 :   0.4167 0.0833 0.1250  plane waves:     686
 k-point  32 :   0.1667 0.1667 0.1250  plane waves:     687
 k-point  33 :   0.2500 0.1667 0.1250  plane waves:     686
 k-point  34 :   0.3333 0.1667 0.1250  plane waves:     681
 k-point  35 :   0.4167 0.1667 0.1250  plane waves:     683
 k-point  36 :   0.2500 0.2500 0.1250  plane waves:     680
 k-point  37 :   0.3333 0.2500 0.1250  plane waves:     688
 k-point  38 :   0.3333 0.3333 0.1250  plane waves:     687
 k-point  39 :   0.0000 0.0000 0.2500  plane waves:     689
 k-point  40 :   0.0833 0.0000 0.2500  plane waves:     691
 k-point  41 :   0.1667 0.0000 0.2500  plane waves:     683
 k-point  42 :   0.2500-0.0000 0.2500  plane waves:     685
 k-point  43 :   0.3333 0.0000 0.2500  plane waves:     689
 k-point  44 :   0.4167-0.0000 0.2500  plane waves:     684
 k-point  45 :   0.5000-0.0000 0.2500  plane waves:     688
 k-point  46 :   0.0833 0.0833 0.2500  plane waves:     681
 k-point  47 :   0.1667 0.0833 0.2500  plane waves:     679
 k-point  48 :   0.2500 0.0833 0.2500  plane waves:     688
 k-point  49 :   0.3333 0.0833 0.2500  plane waves:     684
 k-point  50 :   0.4167 0.0833 0.2500  plane waves:     687
 k-point  51 :   0.1667 0.1667 0.2500  plane waves:     685
 k-point  52 :   0.2500 0.1667 0.2500  plane waves:     685
 k-point  53 :   0.3333 0.1667 0.2500  plane waves:     684
 k-point  54 :   0.4167 0.1667 0.2500  plane waves:     687
 k-point  55 :   0.2500 0.2500 0.2500  plane waves:     689
 k-point  56 :   0.3333 0.2500 0.2500  plane waves:     682
 k-point  57 :   0.3333 0.3333 0.2500  plane waves:     675
 k-point  58 :   0.0000 0.0000 0.3750  plane waves:     676
 k-point  59 :   0.0833 0.0000 0.3750  plane waves:     681
 k-point  60 :   0.1667 0.0000 0.3750  plane waves:     679
[...]
 k-point  81 :   0.3333 0.0000 0.5000  plane waves:     680
 k-point  82 :   0.4167-0.0000 0.5000  plane waves:     680
 k-point  83 :   0.5000-0.0000 0.5000  plane waves:     676
 k-point  84 :   0.0833 0.0833 0.5000  plane waves:     684
 k-point  85 :   0.1667 0.0833 0.5000  plane waves:     678
 k-point  86 :   0.2500 0.0833 0.5000  plane waves:     686
 k-point  87 :   0.3333 0.0833 0.5000  plane waves:     684
 k-point  88 :   0.4167 0.0833 0.5000  plane waves:     692
 k-point  89 :   0.1667 0.1667 0.5000  plane waves:     682
 k-point  90 :   0.2500 0.1667 0.5000  plane waves:     688
 k-point  91 :   0.3333 0.1667 0.5000  plane waves:     694
 k-point  92 :   0.4167 0.1667 0.5000  plane waves:     694
 k-point  93 :   0.2500 0.2500 0.5000  plane waves:     700
 k-point  94 :   0.3333 0.2500 0.5000  plane waves:     686
 k-point  95 :   0.3333 0.3333 0.5000  plane waves:     690

 maximum and minimum number of plane-waves per node :       713      673

 maximum number of plane-waves:       713
 maximum index in each direction:
   IXMAX=    4   IYMAX=    4   IZMAX=    8
   IXMIN=   -5   IYMIN=   -5   IZMIN=   -8

 serial   3D FFT for wavefunctions
 parallel 3D FFT for charge:
    minimum data exchange during FFTs selected (reduces bandwidth)

 Broyden mixing: mesh for mixing (old mesh)
   NGX =  9   NGY =  9   NGZ = 17
  (NGX  = 40   NGY  = 40   NGZ  = 72)
  gives a total of   1377 points

 initial charge density was supplied:
 charge density of overlapping atoms calculated
 number of electron      32.0000000 magnetization
 keeping initial charge density in first step

 Maximum index for augmentation-charges          730 (set IRDMAX)

 First call to EWALD:  gamma=   0.561
 Maximum number of real-space cells 3x 3x 2
 Maximum number of reciprocal cells 2x 2x 4

--------------------------------------- Iteration      1(   1)  ---------------------------------------

 eigenvalue-minimisations  :  4608
 total energy-change (2. order) : 0.1421008E+03  (-0.2314434E+04)
 number of electron      32.0000000 magnetization
 augmentation part       32.0000000 magnetization

 Free energy of the ion-electron system (eV)
  alpha Z        PSCENC =       303.71314961
  Ewald energy   TEWEN  =     -4240.69024974
  -Hartree energ DENC   =      -819.48907223
  -exchange      EXHF   =         0.00000000
  -V(xc)+E(xc)   XCENC  =       127.32804754
  PAW double counting   =      4131.50523274    -4061.67189606
  entropy T*S    EENTRO =        -0.00140157
  eigenvalues    EBANDS =      -155.02267562
  atomic energy  EATOM  =      4856.42966544
  Solvation  Ediel_sol  =         0.00000000
  free energy    TOTEN  =       142.10080012 eV

  energy without entropy =      142.10220170  energy(sigma->0) =      142.10150091

[...]

 eigenvalue-minimisations  :  4704
 total energy-change (2. order) :-0.1534432E+03  (-0.1527617E+03)
 number of electron      32.0000000 magnetization
 augmentation part       32.0000000 magnetization

[...]

 Broyden mixing:
  rms(total) = 0.19707E+01    rms(broyden)= 0.19705E+01
  rms(prec ) = 0.21906E+01
  weight for this iteration     100.00

[...]

 eigenvalues of (default mixing * dielectric matrix)
  average eigenvalue GAMMA=   1.4062
  1.4062

[...]

 eigenvalue-minimisations  :  5256
 total energy-change (2. order) :-0.1118163E-04  (-0.1165426E-05)
 number of electron      31.9999996 magnetization
 augmentation part        8.2271815 magnetization

 Broyden mixing:
  rms(total) = 0.99140E-03    rms(broyden)= 0.99117E-03
  rms(prec ) = 0.10359E-02
  weight for this iteration     100.00

 eigenvalues of (default mixing * dielectric matrix)
  average eigenvalue GAMMA=   1.6746
  2.7080  2.3475  0.9603  1.1786  1.1786

[...]

--------------------------------------- Iteration      1(  11)  ---------------------------------------

 eigenvalue-minimisations  :  3456
 total energy-change (2. order) : 0.5546617E-06  (-0.2033528E-07)
 number of electron      31.9999996 magnetization
 augmentation part        8.2271815 magnetization

 Free energy of the ion-electron system (eV)
  alpha Z        PSCENC =       303.71314961
  Ewald energy   TEWEN  =     -4240.69024974
  -Hartree energ DENC   =      -780.74222570
  -exchange      EXHF   =         0.00000000
  -V(xc)+E(xc)   XCENC  =       125.62409685
  PAW double counting   =      4628.35485033    -4563.52823564
  entropy T*S    EENTRO =        -0.00658986
  eigenvalues    EBANDS =      -341.20150723
  atomic energy  EATOM  =      4856.42966544
  Solvation  Ediel_sol  =         0.00000000
  free energy    TOTEN  =       -12.04704593 eV

  energy without entropy =      -12.04045607  energy(sigma->0) =      -12.04375100

 average (electrostatic) potential at core
  the test charge radii are     0.9952
  (the norm of the test charge is              1.0000)
       1 -89.4857       2 -89.4857

 E-fermi :  11.1241     XC(G=0): -13.6993     alpha+bet :-16.6031

 Fermi energy:        11.1241441685

 k-point     1 :       0.0000    0.0000    0.0000
  band No.  band energies     occupation
      1     -41.4895      2.00000
      2     -41.3007      2.00000
      3     -41.3007      2.00000
      4     -41.2606      2.00000
      5     -41.2606      2.00000
      6     -41.1608      2.00000
      7       1.4212      2.00000
      8       4.0693      2.00000
      9       7.1940      2.00000
     10       7.7184      2.00000
     11       7.7184      2.00000
     12       8.0833      2.00000
     13       8.0833      2.00000
     14       9.3386      2.00000
     15       9.3386      2.00000
     16      10.4147      2.00000
     17      10.9153      2.00000
     18      10.9153      2.00000
     19      15.7974      0.00000
     20      26.2340      0.00000
     21      26.8062      0.00000
     22      28.3840      0.00000
     23      32.1631      0.00000
     24      32.1631      0.00000

[...]

 k-point    95 :       0.3333    0.3333    0.5000
  band No.  band energies     occupation
      1     -41.5696      2.00000
      2     -41.5696      2.00000
      3     -41.5442      2.00000
      4     -41.5442      2.00000
      5     -41.2461      2.00000
      6     -41.2461      2.00000
      7       6.0647      2.00000
      8       6.0647      2.00000
      9       6.6617      2.00000
     10       6.6617      2.00000
     11       7.4909      2.00000
     12       7.4909      2.00000
     13       8.7397      2.00000
     14       8.7397      2.00000
     15      10.9601      2.00000
     16      10.9601      2.00000
     17      17.6697      0.00000
     18      17.6697      0.00000
     19      17.7364      0.00000
     20      17.7364      0.00000
     21      19.9224      0.00000
     22      19.9224      0.00000
     23      28.6409      0.00000
     24      28.6409      0.00000

 soft charge-density along one line, spin component           1
         0         1         2         3         4         5         6         7         8         9
 total charge-density along one line

------------------------ aborting loop because EDIFF is reached ----------------------------------------

  FORCE on cell =-STRESS in cart. coord.  units (eV):
  Direction    XX          YY          ZZ          XY          YZ          ZX
  Alpha Z   303.71315   303.71315   303.71315
  Ewald   -1374.27429 -1374.27429 -1492.14368     0.00000     0.00000    -0.00000
  Hartree   277.88340   277.88340   224.97088    -0.00000    -0.00000    -0.00000
  E(xc)    -170.75538  -170.75539  -170.99252    -0.00000    -0.00000    -0.00000
  Local     182.82147   182.82145   342.73909    -0.00002    -0.00000    -0.00000
  n-local   -59.15727   -61.05170   -62.54396   -12.80393     3.71515     3.34110
  augment   145.62650   145.62651   148.93837     0.00001    -0.00000    -0.00000
  Kinetic   697.48709   691.76534   704.82721   -17.36212     3.88596     1.45600
  Fock        0.00000     0.00000     0.00000     0.00000     0.00000     0.00000
  Total      -0.46343    -0.46343    -0.49147     0.00000     0.00000    -0.00000
  in kB     -23.49676   -23.49676   -24.91860     0.00000     0.00000    -0.00000

 VOLUME and BASIS-vectors are now :
  energy-cutoff  :      450.00
  volume of cell :       31.60
      direct lattice vectors                 reciprocal lattice vectors
     2.760000000  0.000000000  0.000000000     0.362318841  0.209184880  0.000000000
    -1.380000000  2.390230114  0.000000000     0.000000000  0.418369760  0.000000000
     0.000000000  0.000000000  4.790000000     0.000000000  0.000000000  0.208768267

  length of vectors
     2.760000000  2.760000000  4.790000000     0.418369760  0.418369760  0.208768267

 FORCES acting on ions
    electron-ion (+dipol)            ewald-force                    non-local-force                 convergence-correction
   0.374E-06 -.216E-06 0.144E-12   0.179E-11 -.111E-11 -.683E-13   -.347E-16 -.278E-16 0.000E+00   -.884E-08 0.510E-08 -.222E-12
   -.288E-06 0.166E-06 -.287E-11   -.176E-11 0.110E-11 0.683E-13   0.312E-16 0.278E-16 0.000E+00   0.885E-08 -.511E-08 -.275E-13
   0.862E-07 -.498E-07 -.272E-11   0.219E-13 -.314E-14 0.000E+00   -.347E-17 0.000E+00 0.000E+00   0.112E-10 -.634E-11 -.250E-12

 POSITION                                       TOTAL-FORCE (eV/Angst)
      0.00000      0.00000      0.00000         0.000000      0.000000      0.000000
      0.00000      1.59349      2.39500        -0.000000      0.000000      0.000000
    total drift:                                0.000000     -0.000000     -0.000000

  FREE ENERGIE OF THE ION-ELECTRON SYSTEM (eV)
  free  energy   TOTEN  =       -12.04704593 eV

  energy  without entropy=      -12.04045607  energy(sigma->0) =      -12.04375100