 vasp.6.3.2 27Jun22 (build Aug 12 2022 00:53:59) complex

 executed on               tv2STD date 2024.12.02  17:32:52

 INCAR:
   SYSTEM = Co-hcc
   NWRITE = 2    write-flag
   ISTART = 0    job   : 0-new, 1-cont, 2-samecut
   ICHARG = 2    charge: 0-wave, 1-file, 2-atom, >10-const
   INIWAV = 1    electr: 0-lowe 1-rand  2-diag
   ENCUT = 425.0     energy cutoff in eV
   PREC = Accurate      normal | accurate
   ADDGRID = .FALSE.  (use fine grid)
   NELM = 100     number of ELM steps
   EDIFF = 1E-06    energy stopping-criterion for ELM
   LREAL = .FALSE.      real-space projection (.FALSE., .TRUE., On, Auto)
   ALGO = Normal     Normal, Fast, Very_Fast
   LWAVE = .FALSE.
   LCHARG = .FALSE.
   NSW = 100       max number of geometry steps
   IBRION = 2     ionic relax: 0-MD, 1-quasi-Newton, 2-CG, 3-Damped MD
   EDIFFG = -0.02  force (eV/A) stopping-criterion for geometry steps
   ISIF = 2     (1:force\=y stress\=trace only ions\=y shape\=n volume\=n)
   ISYM = 1     (1-use symmetry, 0-no symmetry)
   ISMEAR = 0     (-1-Fermi, 1-Methfessel/Paxton)
   SIGMA = 0.05   broadening in eV
   LORBIT = 11
   ISPIN = 2
   MAGMOM = 2*3

 POTCAR:    PAW_PBE Co 02Aug2007
 POTCAR:    PAW_PBE Co 02Aug2007
   VRHFIN =Co: d8 s1

   TITEL  = PAW_PBE Co 02Aug2007
   POMASS =   58.933; ZVAL   =    9.000    mass and valenz
   ENMAX  =  267.968; ENMIN  =  200.976 eV

  PAW_PBE Co 02Aug2007                  :

 POSCAR: Co
  positions in cartesian coordinates
 exchange correlation table for  LEXCH =        8
   RHO(1)=    0.500       N(1)  =     2000
   RHO(2)=  100.500       N(2)  =     4000

 ion  position               nearest neighbor table
   1  0.333  0.667  0.250-   2 2.50   2 2.50   2 2.50   2 2.50   2 2.50   2 2.50
   2  0.667  0.333  0.750-   1 2.50   1 2.50   1 2.50   1 2.50   1 2.50   1 2.50

  LATTYP: Found a hexagonal cell.
 ALAT       =     2.5196654471
 C/A-ratio  =     1.6130472937

  Lattice vectors:

 A1 = (   1.2598327235,  -2.1820942862,   0.0000000000)
 A2 = (   1.2598327235,   2.1820942862,   0.0000000000)
 A3 = (   0.0000000000,   0.0000000000,   4.0643395305)

Analysis of symmetry for initial positions (statically):
 Subroutine PRICEL returns:
 Original cell was already a primitive cell.

 Routine SETGRP: Setting up the symmetry group for a
 hexagonal supercell.

 Subroutine GETGRP returns: Found 24 space group operations
 (whereof 12 operations were pure point group operations)
 out of a pool of 24 trial point group operations.

The static configuration has the point symmetry D_3d.
 The point group associated with its full space group is D_6h.

Analysis of symmetry for dynamics (positions and initial velocities):
 Subroutine PRICEL returns:
 Original cell was already a primitive cell.

[...]

The dynamic configuration has the point symmetry D_3d.
 The point group associated with its full space group is D_6h.

Analysis of structural, dynamic, and magnetic symmetry:
 Subroutine PRICEL returns:
 Original cell was already a primitive cell.

 Routine SETGRP: Setting up the symmetry group for a
 hexagonal supercell.

 Subroutine GETGRP returns: Found 24 space group operations
 (whereof 12 operations were pure point group operations)
 out of a pool of 24 trial point group operations.

The overall configuration has the point symmetry D_3d.
 The point group associated with its full space group is D_6h.

 Subroutine INISYM returns: Found 24 space group operations
 (whereof 12 operations are pure point group operations),
 and found     1 'primitive' translations

                                     Primitive cell

  volume of cell :      22.3463

  direct lattice vectors                    reciprocal lattice vectors
     1.259832724 -2.182094286  0.000000000     0.396878086 -0.229137670  0.000000000
     1.259832724  2.182094286  0.000000000     0.396878086  0.229137670  0.000000000
     0.000000000  0.000000000  4.064339531     0.000000000  0.000000000  0.246042436

  length of vectors
     2.519665447  2.519665447  4.064339531     0.458275340  0.458275340  0.246042436

  position of ions in fractional coordinates (direct lattice)
     0.333333333  0.666666667  0.250000000
     0.666666667  0.333333333  0.750000000

  ion indices of the primitive-cell ions
   primitive index   ion index
                 1           1
                 2           2

 KPOINTS: Automatic mesh

Automatic generation of k-mesh.
 Grid dimensions read from file:
 generate k-points for:   12   12    8

 Generating k-lattice:

  Cartesian coordinates                     Fractional coordinates (reciprocal lattice)
     0.033073174 -0.019094806  0.000000000     0.083333333  0.000000000  0.000000000
     0.033073174  0.019094806  0.000000000     0.000000000  0.083333333  0.000000000
     0.000000000  0.000000000  0.030755305     0.000000000  0.000000000  0.125000000

  Length of vectors
     0.038189612  0.038189612  0.030755305

  Shift w.r.t. Gamma in fractional coordinates (k-lattice)
     0.000000000  0.000000000  0.000000000

 Subroutine IBZKPT returns following result:

 Found     95 irreducible k-points:

 Following reciprocal coordinates:
            Coordinates               Weight
  0.000000  0.000000  0.000000      1.000000
  0.083333 -0.000000  0.000000      6.000000
  0.166667 -0.000000  0.000000      6.000000
  0.250000 -0.000000  0.000000      6.000000
  0.333333 -0.000000  0.000000      6.000000
  0.416667 -0.000000  0.000000      6.000000
  0.500000 -0.000000  0.000000      3.000000
  0.083333  0.083333  0.000000      6.000000
  0.166667  0.083333  0.000000     12.000000
  0.250000  0.083333  0.000000     12.000000
  0.333333  0.083333  0.000000     12.000000
  0.416667  0.083333  0.000000     12.000000
  0.166667  0.166667  0.000000      6.000000
  0.250000  0.166667  0.000000     12.000000
  0.333333  0.166667  0.000000     12.000000
  0.416667  0.166667  0.000000      6.000000
  0.250000  0.250000  0.000000      6.000000
  0.333333  0.250000  0.000000     12.000000
  0.333333  0.333333  0.000000      2.000000
  0.000000  0.000000  0.125000      2.000000
  0.083333 -0.000000  0.125000     12.000000
  0.166667 -0.000000  0.125000     12.000000
  0.250000 -0.000000  0.125000     12.000000
  0.333333 -0.000000  0.125000     12.000000
  0.416667 -0.000000  0.125000     12.000000
  0.500000 -0.000000  0.125000      6.000000
  0.083333  0.083333  0.125000     12.000000
  0.166667  0.083333  0.125000     24.000000
  0.250000  0.083333  0.125000     24.000000
  0.333333  0.083333  0.125000     24.000000
  0.416667  0.083333  0.125000     24.000000
  0.166667  0.166667  0.125000     12.000000
  0.250000  0.166667  0.125000     24.000000
  0.333333  0.166667  0.125000     24.000000
  0.416667  0.166667  0.125000     12.000000
  0.250000  0.250000  0.125000     12.000000
  0.333333  0.250000  0.125000     24.000000
  0.333333  0.333333  0.125000      4.000000
  0.000000  0.000000  0.250000      2.000000
  0.083333 -0.000000  0.250000     12.000000
  0.166667 -0.000000  0.250000     12.000000
  0.250000 -0.000000  0.250000     12.000000
  0.333333 -0.000000  0.250000     12.000000
  0.416667 -0.000000  0.250000     12.000000
  0.500000 -0.000000  0.250000      6.000000
  0.083333  0.083333  0.250000     12.000000
  0.166667  0.083333  0.250000     24.000000
  0.250000  0.083333  0.250000     24.000000
  0.333333  0.083333  0.250000     24.000000
  0.416667  0.083333  0.250000     24.000000
  0.166667  0.166667  0.250000     12.000000
  0.250000  0.166667  0.250000     24.000000
  0.333333  0.166667  0.250000     24.000000
  0.416667  0.166667  0.250000     12.000000
  0.250000  0.250000  0.250000     12.000000
  0.333333  0.250000  0.250000     24.000000
  0.333333  0.333333  0.250000      4.000000
  0.000000  0.000000  0.375000      2.000000
  0.083333 -0.000000  0.375000     12.000000
  0.166667 -0.000000  0.375000     12.000000
[...]
  0.333333 -0.000000  0.500000      6.000000
  0.416667 -0.000000  0.500000      6.000000
  0.500000 -0.000000  0.500000      3.000000
  0.083333  0.083333  0.500000      6.000000
  0.166667  0.083333  0.500000     12.000000
  0.250000  0.083333  0.500000     12.000000
  0.333333  0.083333  0.500000     12.000000
  0.416667  0.083333  0.500000     12.000000
  0.166667  0.166667  0.500000      6.000000
  0.250000  0.166667  0.500000     12.000000
  0.333333  0.166667  0.500000     12.000000
  0.416667  0.166667  0.500000      6.000000
  0.250000  0.250000  0.500000      6.000000
  0.333333  0.250000  0.500000     12.000000
  0.333333  0.333333  0.500000      2.000000

 Following cartesian coordinates:
            Coordinates               Weight
  0.000000  0.000000  0.000000      1.000000
  0.033073 -0.019095  0.000000      6.000000
  0.066146 -0.038190  0.000000      6.000000
  0.099220 -0.057284  0.000000      6.000000
  0.132293 -0.076379  0.000000      6.000000
  0.165366 -0.095474  0.000000      6.000000
  0.198439 -0.114569  0.000000      3.000000
  0.066146  0.000000  0.000000      6.000000
  0.099220 -0.019095  0.000000     12.000000
  0.132293 -0.038190  0.000000     12.000000
  0.165366 -0.057284  0.000000     12.000000
  0.198439 -0.076379  0.000000     12.000000
  0.132293  0.000000  0.000000      6.000000
  0.165366 -0.019095  0.000000     12.000000
  0.198439 -0.038190  0.000000     12.000000
  0.231512 -0.057284  0.000000      6.000000
  0.198439  0.000000  0.000000      6.000000
  0.231512 -0.019095  0.000000     12.000000
  0.264585  0.000000  0.000000      2.000000
  0.000000  0.000000  0.030755      2.000000
  0.033073 -0.019095  0.030755     12.000000
  0.066146 -0.038190  0.030755     12.000000
  0.099220 -0.057284  0.030755     12.000000
  0.132293 -0.076379  0.030755     12.000000
  0.165366 -0.095474  0.030755     12.000000
  0.198439 -0.114569  0.030755      6.000000
  0.066146  0.000000  0.030755     12.000000
  0.099220 -0.019095  0.030755     24.000000
  0.132293 -0.038190  0.030755     24.000000
  0.165366 -0.057284  0.030755     24.000000
  0.198439 -0.076379  0.030755     24.000000
  0.132293  0.000000  0.030755     12.000000
  0.165366 -0.019095  0.030755     24.000000
  0.198439 -0.038190  0.030755     24.000000
  0.231512 -0.057284  0.030755     12.000000
  0.198439  0.000000  0.030755     12.000000
  0.231512 -0.019095  0.030755     24.000000
  0.264585  0.000000  0.030755      4.000000
  0.000000  0.000000  0.061511      2.000000
  0.033073 -0.019095  0.061511     12.000000
  0.066146 -0.038190  0.061511     12.000000
  0.099220 -0.057284  0.061511     12.000000
  0.132293 -0.076379  0.061511     12.000000
  0.165366 -0.095474  0.061511     12.000000
  0.198439 -0.114569  0.061511      6.000000
  0.066146  0.000000  0.061511     12.000000
  0.099220 -0.019095  0.061511     24.000000
  0.132293 -0.038190  0.061511     24.000000
  0.165366 -0.057284  0.061511     24.000000
  0.198439 -0.076379  0.061511     24.000000
  0.132293  0.000000  0.061511     12.000000
  0.165366 -0.019095  0.061511     24.000000
  0.198439 -0.038190  0.061511     24.000000
  0.231512 -0.057284  0.061511     12.000000
  0.198439  0.000000  0.061511     12.000000
  0.231512 -0.019095  0.061511     24.000000
  0.264585  0.000000  0.061511      4.000000
[...]
   0.25000000  0.08333333  0.25000000       0.021
   0.33333333  0.08333333  0.25000000       0.021
   0.41666667  0.08333333  0.25000000       0.021
   0.16666667  0.16666667  0.25000000       0.010
   0.25000000  0.16666667  0.25000000       0.021
   0.33333333  0.16666667  0.25000000       0.021
   0.41666667  0.16666667  0.25000000       0.010
   0.25000000  0.25000000  0.25000000       0.010
   0.33333333  0.25000000  0.25000000       0.021
   0.33333333  0.33333333  0.25000000       0.003
   0.00000000  0.00000000  0.37500000       0.002
   0.08333333 -0.00000000  0.37500000       0.010
   0.16666667 -0.00000000  0.37500000       0.010
[...]
   0.33333333 -0.00000000  0.50000000       0.005
   0.41666667 -0.00000000  0.50000000       0.005
   0.50000000 -0.00000000  0.50000000       0.003
   0.08333333  0.08333333  0.50000000       0.005
   0.16666667  0.08333333  0.50000000       0.010
   0.25000000  0.08333333  0.50000000       0.010
   0.33333333  0.08333333  0.50000000       0.010
   0.41666667  0.08333333  0.50000000       0.010
   0.16666667  0.16666667  0.50000000       0.005
   0.25000000  0.16666667  0.50000000       0.010
   0.33333333  0.16666667  0.50000000       0.010
   0.41666667  0.16666667  0.50000000       0.005
   0.25000000  0.25000000  0.50000000       0.005
   0.33333333  0.25000000  0.50000000       0.010
   0.33333333  0.33333333  0.50000000       0.002

 position of ions in fractional coordinates (direct lattice)
   0.33333333  0.66666667  0.25000000
   0.66666667  0.33333333  0.75000000

 position of ions in cartesian coordinates  (Angst):
   1.25983272  0.72736476  1.01608488
   1.25983272 -0.72736476  3.04825465

 k-point   1 :   0.0000 0.0000 0.0000  plane waves:     451
 k-point   2 :   0.0833-0.0000 0.0000  plane waves:     435
 k-point   3 :   0.1667-0.0000 0.0000  plane waves:     445
 k-point   4 :   0.2500-0.0000 0.0000  plane waves:     447
 k-point   5 :   0.3333-0.0000 0.0000  plane waves:     446
 k-point   6 :   0.4167-0.0000 0.0000  plane waves:     444
 k-point   7 :   0.5000-0.0000 0.0000  plane waves:     448
 k-point   8 :   0.0833 0.0833 0.0000  plane waves:     435
 k-point   9 :   0.1667 0.0833 0.0000  plane waves:     443
 k-point  10 :   0.2500 0.0833 0.0000  plane waves:     446
 k-point  11 :   0.3333 0.0833 0.0000  plane waves:     445
 k-point  12 :   0.4167 0.0833 0.0000  plane waves:     446
 k-point  13 :   0.1667 0.1667 0.0000  plane waves:     440
 k-point  14 :   0.2500 0.1667 0.0000  plane waves:     441
 k-point  15 :   0.3333 0.1667 0.0000  plane waves:     447
 k-point  16 :   0.4167 0.1667 0.0000  plane waves:     448
 k-point  17 :   0.2500 0.2500 0.0000  plane waves:     440
 k-point  18 :   0.3333 0.2500 0.0000  plane waves:     452
 k-point  19 :   0.3333 0.3333 0.0000  plane waves:     438
 k-point  20 :   0.0000 0.0000 0.1250  plane waves:     451
 k-point  21 :   0.0833-0.0000 0.1250  plane waves:     437
 k-point  22 :   0.1667-0.0000 0.1250  plane waves:     444
 k-point  23 :   0.2500-0.0000 0.1250  plane waves:     442
 k-point  24 :   0.3333-0.0000 0.1250  plane waves:     445
 k-point  25 :   0.4167-0.0000 0.1250  plane waves:     446
 k-point  26 :   0.5000-0.0000 0.1250  plane waves:     444
 k-point  27 :   0.0833 0.0833 0.1250  plane waves:     440
 k-point  28 :   0.1667 0.0833 0.1250  plane waves:     445
 k-point  29 :   0.2500 0.0833 0.1250  plane waves:     445
 k-point  30 :   0.3333 0.0833 0.1250  plane waves:     445
 k-point  31 :   0.4167 0.0833 0.1250  plane waves:     446
 k-point  32 :   0.1667 0.1667 0.1250  plane waves:     442
 k-point  33 :   0.2500 0.1667 0.1250  plane waves:     441
 k-point  34 :   0.3333 0.1667 0.1250  plane waves:     444
 k-point  35 :   0.4167 0.1667 0.1250  plane waves:     443
 k-point  36 :   0.2500 0.2500 0.1250  plane waves:     442
 k-point  37 :   0.3333 0.2500 0.1250  plane waves:     448
 k-point  38 :   0.3333 0.3333 0.1250  plane waves:     450
 k-point  39 :   0.0000 0.0000 0.2500  plane waves:     446
 k-point  40 :   0.0833-0.0000 0.2500  plane waves:     446
 k-point  41 :   0.1667-0.0000 0.2500  plane waves:     443
 k-point  42 :   0.2500-0.0000 0.2500  plane waves:     438
 k-point  43 :   0.3333-0.0000 0.2500  plane waves:     444
 k-point  44 :   0.4167-0.0000 0.2500  plane waves:     450
 k-point  45 :   0.5000-0.0000 0.2500  plane waves:     450
 k-point  46 :   0.0833 0.0833 0.2500  plane waves:     444
 k-point  47 :   0.1667 0.0833 0.2500  plane waves:     446
 k-point  48 :   0.2500 0.0833 0.2500  plane waves:     441
 k-point  49 :   0.3333 0.0833 0.2500  plane waves:     446
 k-point  50 :   0.4167 0.0833 0.2500  plane waves:     450
 k-point  51 :   0.1667 0.1667 0.2500  plane waves:     441
 k-point  52 :   0.2500 0.1667 0.2500  plane waves:     442
 k-point  53 :   0.3333 0.1667 0.2500  plane waves:     445
 k-point  54 :   0.4167 0.1667 0.2500  plane waves:     447
 k-point  55 :   0.2500 0.2500 0.2500  plane waves:     442
 k-point  56 :   0.3333 0.2500 0.2500  plane waves:     442
 k-point  57 :   0.3333 0.3333 0.2500  plane waves:     447
 k-point  58 :   0.0000 0.0000 0.3750  plane waves:     452
 k-point  59 :   0.0833-0.0000 0.3750  plane waves:     451
 k-point  60 :   0.1667-0.0000 0.3750  plane waves:     445
[...]
 k-point  81 :   0.3333-0.0000 0.5000  plane waves:     438
 k-point  82 :   0.4167-0.0000 0.5000  plane waves:     442
 k-point  83 :   0.5000-0.0000 0.5000  plane waves:     440
 k-point  84 :   0.0833 0.0833 0.5000  plane waves:     462
 k-point  85 :   0.1667 0.0833 0.5000  plane waves:     442
 k-point  86 :   0.2500 0.0833 0.5000  plane waves:     442
 k-point  87 :   0.3333 0.0833 0.5000  plane waves:     444
 k-point  88 :   0.4167 0.0833 0.5000  plane waves:     446
 k-point  89 :   0.1667 0.1667 0.5000  plane waves:     448
 k-point  90 :   0.2500 0.1667 0.5000  plane waves:     446
 k-point  91 :   0.3333 0.1667 0.5000  plane waves:     444
 k-point  92 :   0.4167 0.1667 0.5000  plane waves:     448
 k-point  93 :   0.2500 0.2500 0.5000  plane waves:     446
 k-point  94 :   0.3333 0.2500 0.5000  plane waves:     446
 k-point  95 :   0.3333 0.3333 0.5000  plane waves:     444

 maximum and minimum number of plane-waves per node :       462      435

 maximum number of plane-waves:       462
 maximum index in each direction:
   IXMAX=    4   IYMAX=    4   IZMAX=    6
   IXMIN=   -4   IYMIN=   -4   IZMIN=   -7

 serial   3D FFT for wavefunctions
 parallel 3D FFT for charge:
    minimum data exchange during FFTs selected (reduces bandwidth)

 Broyden mixing: mesh for mixing (old mesh)
   NGX =  9   NGY =  9   NGZ = 13
  (NGX  = 36   NGY  = 36   NGZ  = 56)
  gives a total of   1053 points

 initial charge density was supplied:
 charge density of overlapping atoms calculated
 number of electron      18.0000000 magnetization       6.0000000
 keeping initial charge density in first step

 Maximum index for augmentation-charges         1022 (set IRDMAX)

 First call to EWALD:  gamma=   0.629
 Maximum number of real-space cells 3x 3x 2
 Maximum number of reciprocal cells 3x 3x 4

--------------------------------------- Iteration      1(   1)  ---------------------------------------

 eigenvalue-minimisations  :  9120
 total energy-change (2. order) : 0.3844108E+01  (-0.8440440E+03)
 number of electron      18.0000000 magnetization       6.0000000
 augmentation part       18.0000000 magnetization       6.0000000

 Free energy of the ion-electron system (eV)
  alpha Z        PSCENC =        75.82036911
  Ewald energy   TEWEN  =     -1506.81481452
  -Hartree energ DENC   =      -306.29815962
  -exchange      EXHF   =         0.00000000
  -V(xc)+E(xc)   XCENC  =        35.44124841
  PAW double counting   =      1439.98163886    -1545.88690193
  entropy T*S    EENTRO =        -0.00360480
  eigenvalues    EBANDS =       184.88110261
  atomic energy  EATOM  =      1626.72322989
  Solvation  Ediel_sol  =         0.00000000
  free energy    TOTEN  =         3.84410802 eV

  energy without entropy =        3.84771282  energy(sigma->0) =        3.84591042

[...]

 eigenvalue-minimisations  : 10944
 total energy-change (2. order) :-0.1939691E+02  (-0.1910675E+02)
 number of electron      18.0000000 magnetization       6.0000000
 augmentation part       18.0000000 magnetization       6.0000000

[...]

 Broyden mixing:
  rms(total) = 0.15643E+01    rms(broyden)= 0.15642E+01
  rms(prec ) = 0.26802E+01
  weight for this iteration     100.00

[...]

 eigenvalues of (default mixing * dielectric matrix)
  average eigenvalue GAMMA=   0.8570
  0.8570

[...]

 eigenvalue-minimisations  : 14904
 total energy-change (2. order) :-0.1871843E-04  (-0.2416034E-04)
 number of electron      18.0000025 magnetization       3.3176201
 augmentation part       10.2627203 magnetization       2.9808286

[...]

 Broyden mixing:
  rms(total) = 0.14151E-02    rms(broyden)= 0.14151E-02
  rms(prec ) = 0.22455E-02
  weight for this iteration     100.00

 eigenvalues of (default mixing * dielectric matrix)
  average eigenvalue GAMMA=   1.2747
  2.4707  2.2649  1.0963  1.0963  0.7037  0.6453  0.6453

[...]

--------------------------------------- Iteration      1(  13)  ---------------------------------------

 eigenvalue-minimisations  : 15360
 total energy-change (2. order) : 0.5618972E-07  (-0.5318379E-06)
 number of electron      18.0000025 magnetization       3.3172529
 augmentation part       10.2629079 magnetization       2.9805310

 Free energy of the ion-electron system (eV)
  alpha Z        PSCENC =        75.82036911
  Ewald energy   TEWEN  =     -1506.81481452
  -Hartree energ DENC   =      -270.88757010
  -exchange      EXHF   =         0.00000000
  -V(xc)+E(xc)   XCENC  =        32.71427673
  PAW double counting   =      1775.30959875    -1881.09671801
  entropy T*S    EENTRO =        -0.00269967
  eigenvalues    EBANDS =       134.18044161
  atomic energy  EATOM  =      1626.72322989
  Solvation  Ediel_sol  =         0.00000000
  free energy    TOTEN  =       -14.05388622 eV

  energy without entropy =      -14.05118655  energy(sigma->0) =      -14.05253638

 average (electrostatic) potential at core
  the test charge radii are     1.0452
  (the norm of the test charge is              1.0000)
       1 -78.6961       2 -78.6961

 E-fermi :   9.8044     XC(G=0): -13.2336     alpha+bet :-17.2148

 Fermi energy:         9.8043608252

 spin component 1

 k-point     1 :       0.0000    0.0000    0.0000
  band No.  band energies     occupation
      1       1.1057      1.00000
      2       4.8362      1.00000
      3       7.2587      1.00000
      4       7.2679      1.00000
      5       7.2679      1.00000
      6       7.5660      1.00000
      7       7.5660      1.00000
      8       7.8893      1.00000
      9       7.8893      1.00000
     10       8.9473      1.00000
     11       8.9473      1.00000
     12       9.8148      0.38368
     13      15.9598      0.00000
     14      31.5363      0.00000
     15      33.7829      0.00000
     16      33.7829      0.00000
     17      34.5630      0.00000
     18      35.0396      0.00000
     19      35.1701      0.00000
     20      35.1701      0.00000
     21      39.8601      0.00000
     22      39.8601      0.00000
     23      40.5882      0.00000
     24      41.2307      0.00000

[...]

 k-point    95 :       0.3333    0.3333    0.5000
  band No.  band energies     occupation
      1       6.0779      1.00000
      2       6.0779      1.00000
      3       6.2170      1.00000
      4       6.2170      1.00000
      5       6.9485      1.00000
      6       6.9485      1.00000
      7       7.9380      1.00000
      8       7.9380      1.00000
      9       8.9938      1.00000
     10       8.9938      1.00000
     11      15.3618      0.00000
     12      15.3618      0.00000
     13      16.9457      0.00000
     14      16.9457      0.00000
     15      19.0558      0.00000
     16      19.0558      0.00000
     17      32.4816      0.00000
     18      32.4816      0.00000
     19      33.0619      0.00000
     20      33.0619      0.00000
     21      36.7926      0.00000
     22      36.7926      0.00000
     23      46.0432      0.00000
     24      46.0432      0.00000
 Fermi energy:         9.8043608252

 spin component 2

[...]

 k-point    95 :       0.3333    0.3333    0.5000
  band No.  band energies     occupation
      1       7.3882      1.00000
      2       7.3882      1.00000
      3       7.4465      1.00000
      4       7.4465      1.00000
      5       8.2021      1.00000
      6       8.2021      1.00000
      7       9.7011      0.99826
      8       9.7011      0.99826
      9      10.8949      0.00000
     10      10.8949      0.00000
     11      15.9941      0.00000
     12      15.9941      0.00000
     13      17.6588      0.00000
     14      17.6588      0.00000
     15      19.7410      0.00000
     16      19.7410      0.00000
     17      32.7496      0.00000
     18      32.7496      0.00000
     19      33.1352      0.00000
     20      33.1352      0.00000
     21      36.9884      0.00000
     22      36.9884      0.00000
     23      46.6915      0.00000
     24      46.6915      0.00000

 soft charge-density along one line, spin component           1
         0         1         2         3         4         5         6         7         8         9
 total charge-density along one line

 soft charge-density along one line, spin component           2
         0         1         2         3         4         5         6         7         8         9
 total charge-density along one line

------------------------ aborting loop because EDIFF is reached ----------------------------------------

 total charge

# of ion       s       p       d       tot
    1        0.478   0.499   7.239   8.215
    2        0.478   0.499   7.239   8.215
tot          0.956   0.997  14.477  16.430

 magnetization (x)

[...]

  FORCE on cell =-STRESS in cart. coord.  units (eV):
  Direction    XX          YY          ZZ          XY          YZ          ZX
  Alpha Z    75.82037    75.82037    75.82037
  Ewald    -505.15619  -505.15619  -496.50349    -0.00000    -0.00000     0.00000
  Hartree    88.98660    88.98660    92.91531    -0.00000    -0.00000    -0.00000
  E(xc)     -92.33443   -92.33443   -92.33919    -0.00000     0.00000    -0.00000
  Local     -20.36523   -20.36512   -32.50584    -0.00000     0.00000     0.00000
  n-local   -15.77252    -5.33488   -10.52943     3.22650    -0.62020     2.39401
  augment   311.39568   311.39557   311.18331     0.00000    -0.00000    -0.00000
  Kinetic   154.31551   148.38330   151.07058    -3.23172    -0.62102     0.55372
  Fock        0.00000     0.00000     0.00000     0.00000     0.00000     0.00000
  Total      -0.85750    -0.85750    -0.88837     0.00000     0.00000    -0.00000
  in kB     -61.48089   -61.48089   -63.69405     0.00000     0.00000    -0.00000

 VOLUME and BASIS-vectors are now :
  energy-cutoff  :      425.00
  volume of cell :       22.35
      direct lattice vectors                 reciprocal lattice vectors
     1.259832724 -2.182094286  0.000000000     0.396878086 -0.229137670  0.000000000
     1.259832724  2.182094286  0.000000000     0.396878086  0.229137670  0.000000000
     0.000000000  0.000000000  4.064339531     0.000000000  0.000000000  0.246042436

  length of vectors
     2.519665447  2.519665447  4.064339531     0.458275340  0.458275340  0.246042436

 FORCES acting on ions
    electron-ion (+dipol)            ewald-force                    non-local-force                 convergence-correction
   0.433E-12 -.891E-07 -.467E-12   0.314E-14 0.237E-11 -.240E-13   0.121E-16 0.208E-16 -.260E-17   0.128E-13 -.256E-08 -.106E-12
   0.597E-12 0.891E-07 -.488E-11   -.963E-14 -.237E-11 0.240E-13   0.694E-17 -.208E-16 -.260E-17   -.398E-13 0.256E-08 0.800E-13
   0.103E-11 0.210E-11 -.535E-11   -.649E-14 0.272E-15 0.000E+00   0.191E-16 0.000E+00 -.520E-17   -.270E-13 -.125E-13 -.256E-13

 POSITION                                       TOTAL-FORCE (eV/Angst)
      1.25983      0.72736      1.01608         0.000000      0.000000     -0.000000
      1.25983     -0.72736      3.04825        -0.000000     -0.000000      0.000000
    total drift:                                0.000000      0.000000     -0.000000

  FREE ENERGIE OF THE ION-ELECTRON SYSTEM (eV)
  free  energy   TOTEN  =       -14.05388622 eV

  energy  without entropy=      -14.05118655  energy(sigma->0) =      -14.05253638

 reached required accuracy - stopping structural energy minimisation

 total charge

[...]

 magnetization (x)

# of ion       s       p       d       tot
    1       -0.013  -0.052   1.748   1.683
    2       -0.013  -0.052   1.748   1.683
tot         -0.027  -0.103   3.496   3.366