 vasp.6.3.2 27Jun22 (build Aug 12 2022 00:53:59) complex

 executed on               tv2STD date 2024.11.30  16:02:54

 INCAR:
   SYSTEM = Pt-hcc
   NWRITE = 2    write-flag
   ISTART = 0    job   : 0-new, 1-cont, 2-samecut
   ICHARG = 2    charge: 0-wave, 1-file, 2-atom, >10-const
   INIWAV = 1    electr: 0-lowe 1-rand  2-diag
   ENCUT = 450.0     energy cutoff in eV
   PREC = Accurate      normal | accurate
   ADDGRID = .FALSE.  (use fine grid)
   NELM = 100     number of ELM steps
   EDIFF = 1E-06    energy stopping-criterion for ELM
   LREAL = .FALSE.      real-space projection (.FALSE., .TRUE., On, Auto)
   ALGO = Normal     Normal, Fast, Very_Fast
   LWAVE = .FALSE.
   LCHARG = .FALSE.
   NSW = 0       max number of geometry steps
   IBRION = -1     ionic relax: 0-MD, 1-quasi-Newton, 2-CG, 3-Damped MD
   EDIFFG = -0.02  force (eV/A) stopping-criterion for geometry steps
   ISIF = 2     (1:force\=y stress\=trace only ions\=y shape\=n volume\=n)
   ISYM = 1     (1-use symmetry, 0-no symmetry)
   ISMEAR = 0     (-1-Fermi, 1-Methfessel/Paxton)
   SIGMA = 0.05   broadening in eV

 POTCAR:    PAW_PBE Pt_pv 12Dec2005
 POTCAR:    PAW_PBE Pt_pv 12Dec2005
   VRHFIN =Pt: 5ps1d9

   TITEL  = PAW_PBE Pt_pv 12Dec2005
   POMASS =  195.080; ZVAL   =   16.000    mass and valenz
   ENMAX  =  294.607; ENMIN  =  220.955 eV

  PAW_PBE Pt_pv 12Dec2005               :

 POSCAR: Pt
  positions in cartesian coordinates
 exchange correlation table for  LEXCH =        8
   RHO(1)=    0.500       N(1)  =     2000
   RHO(2)=  100.500       N(2)  =     4000

 ion  position               nearest neighbor table
   1  0.000  0.000  0.000-
   2  0.333  0.667  0.500-

  LATTYP: Found a hexagonal cell.
 ALAT       =     2.7600000000
 C/A-ratio  =     1.7355072464

  Lattice vectors:

 A1 = (   2.7600000000,   0.0000000000,   0.0000000000)
 A2 = (  -1.3800000000,   2.3902301144,   0.0000000000)
 A3 = (   0.0000000000,   0.0000000000,   4.7900000000)

Analysis of symmetry for initial positions (statically):
 Subroutine PRICEL returns:
 Original cell was already a primitive cell.

 Routine SETGRP: Setting up the symmetry group for a
 hexagonal supercell.

 Subroutine GETGRP returns: Found 24 space group operations
 (whereof 12 operations were pure point group operations)
 out of a pool of 24 trial point group operations.

The static configuration has the point symmetry D_3h.
 The point group associated with its full space group is D_6h.

Analysis of symmetry for dynamics (positions and initial velocities):
 Subroutine PRICEL returns:
 Original cell was already a primitive cell.

 Routine SETGRP: Setting up the symmetry group for a
 hexagonal supercell.

 Subroutine GETGRP returns: Found 24 space group operations
 (whereof 12 operations were pure point group operations)
 out of a pool of 24 trial point group operations.

The dynamic configuration has the point symmetry D_3h.
 The point group associated with its full space group is D_6h.

 Subroutine INISYM returns: Found 24 space group operations
 (whereof 12 operations are pure point group operations),
 and found     1 'primitive' translations

                                     Primitive cell

  volume of cell :      31.5998

  direct lattice vectors                    reciprocal lattice vectors
     2.760000000  0.000000000  0.000000000     0.362318841  0.209184880  0.000000000
    -1.380000000  2.390230114  0.000000000     0.000000000  0.418369760  0.000000000
     0.000000000  0.000000000  4.790000000     0.000000000  0.000000000  0.208768267

  length of vectors
     2.760000000  2.760000000  4.790000000     0.418369760  0.418369760  0.208768267

  position of ions in fractional coordinates (direct lattice)
     0.000000000  0.000000000  0.000000000
     0.333333333  0.666666667  0.500000000

  ion indices of the primitive-cell ions
   primitive index   ion index
                 1           1
                 2           2

 KPOINTS: Automatic mesh

Automatic generation of k-mesh.
 Grid dimensions read from file:
 generate k-points for:    8    8    6

 Generating k-lattice:

  Cartesian coordinates                     Fractional coordinates (reciprocal lattice)
     0.045289855  0.026148110  0.000000000     0.125000000  0.000000000  0.000000000
     0.000000000  0.052296220  0.000000000     0.000000000  0.125000000  0.000000000
     0.000000000  0.000000000  0.034794711     0.000000000  0.000000000  0.166666667

  Length of vectors
     0.052296220  0.052296220  0.034794711

  Shift w.r.t. Gamma in fractional coordinates (k-lattice)
     0.000000000  0.000000000  0.000000000

 Subroutine IBZKPT returns following result:

 Found     40 irreducible k-points:

 Following reciprocal coordinates:
            Coordinates               Weight
  0.000000  0.000000  0.000000      1.000000
  0.125000 -0.000000  0.000000      6.000000
  0.250000 -0.000000  0.000000      6.000000
  0.375000 -0.000000  0.000000      6.000000
  0.500000 -0.000000  0.000000      3.000000
  0.125000  0.125000  0.000000      6.000000
  0.250000  0.125000  0.000000     12.000000
  0.375000  0.125000  0.000000     12.000000
  0.250000  0.250000  0.000000      6.000000
  0.375000  0.250000  0.000000      6.000000
  0.000000  0.000000  0.166667      2.000000
  0.125000 -0.000000  0.166667     12.000000
  0.250000 -0.000000  0.166667     12.000000
  0.375000 -0.000000  0.166667     12.000000
  0.500000 -0.000000  0.166667      6.000000
  0.125000  0.125000  0.166667     12.000000
  0.250000  0.125000  0.166667     24.000000
  0.375000  0.125000  0.166667     24.000000
  0.250000  0.250000  0.166667     12.000000
  0.375000  0.250000  0.166667     12.000000
  0.000000  0.000000  0.333333      2.000000
  0.125000 -0.000000  0.333333     12.000000
  0.250000 -0.000000  0.333333     12.000000
  0.375000 -0.000000  0.333333     12.000000
  0.500000 -0.000000  0.333333      6.000000
  0.125000  0.125000  0.333333     12.000000
  0.250000  0.125000  0.333333     24.000000
  0.375000  0.125000  0.333333     24.000000
  0.250000  0.250000  0.333333     12.000000
  0.375000  0.250000  0.333333     12.000000
  0.000000  0.000000  0.500000      1.000000
  0.125000 -0.000000  0.500000      6.000000
  0.250000 -0.000000  0.500000      6.000000
  0.375000 -0.000000  0.500000      6.000000
  0.500000 -0.000000  0.500000      3.000000
  0.125000  0.125000  0.500000      6.000000
  0.250000  0.125000  0.500000     12.000000
  0.375000  0.125000  0.500000     12.000000
  0.250000  0.250000  0.500000      6.000000
  0.375000  0.250000  0.500000      6.000000

 Following cartesian coordinates:
            Coordinates               Weight
  0.000000  0.000000  0.000000      1.000000
  0.045290  0.026148  0.000000      6.000000
  0.090580  0.052296  0.000000      6.000000
  0.135870  0.078444  0.000000      6.000000
  0.181159  0.104592  0.000000      3.000000
  0.045290  0.078444  0.000000      6.000000
  0.090580  0.104592  0.000000     12.000000
  0.135870  0.130741  0.000000     12.000000
  0.090580  0.156889  0.000000      6.000000
  0.135870  0.183037  0.000000      6.000000
  0.000000  0.000000  0.034795      2.000000
  0.045290  0.026148  0.034795     12.000000
  0.090580  0.052296  0.034795     12.000000
  0.135870  0.078444  0.034795     12.000000
  0.181159  0.104592  0.034795      6.000000
  0.045290  0.078444  0.034795     12.000000
  0.090580  0.104592  0.034795     24.000000
  0.135870  0.130741  0.034795     24.000000
  0.090580  0.156889  0.034795     12.000000
  0.135870  0.183037  0.034795     12.000000
  0.000000  0.000000  0.069589      2.000000
  0.045290  0.026148  0.069589     12.000000
  0.090580  0.052296  0.069589     12.000000
  0.135870  0.078444  0.069589     12.000000
  0.181159  0.104592  0.069589      6.000000
  0.045290  0.078444  0.069589     12.000000
  0.090580  0.104592  0.069589     24.000000
  0.135870  0.130741  0.069589     24.000000
  0.090580  0.156889  0.069589     12.000000
  0.135870  0.183037  0.069589     12.000000
  0.000000  0.000000  0.104384      1.000000
  0.045290  0.026148  0.104384      6.000000
  0.090580  0.052296  0.104384      6.000000
  0.135870  0.078444  0.104384      6.000000
  0.181159  0.104592  0.104384      3.000000
  0.045290  0.078444  0.104384      6.000000
  0.090580  0.104592  0.104384     12.000000
  0.135870  0.130741  0.104384     12.000000
  0.090580  0.156889  0.104384      6.000000
  0.135870  0.183037  0.104384      6.000000

 SYSTEM =  Pt-hcc
 POSCAR =  Pt

 Startparameter for this run:
   NWRITE =      2    write-flag & timer
   PREC   = accura    normal or accurate (medium, high low for compatibility)
   ISTART =      0    job   : 0-new  1-cont  2-samecut
   ICHARG =      2    charge: 1-file 2-atom 10-const
   ISPIN  =      1    spin polarized calculation?
   LNONCOLLINEAR =      F non collinear calculations
   LSORBIT =      F    spin-orbit coupling
   INIWAV =      1    electr: 0-lowe 1-rand  2-diag
   LASPH  =      F    aspherical Exc in radial PAW
 Electronic Relaxation 1
   ENCUT  =  450.0 eV  33.07 Ry    5.75 a.u.   4.77  4.77  8.29*2*pi/ulx,y,z
   ENINI  =  450.0     initial cutoff
   ENAUG  =  527.0 eV  augmentation charge cutoff
   NELM   =    100;   NELMIN=  2; NELMDL= -5     # of ELM steps
   EDIFF  = 0.1E-05   stopping-criterion for ELM
   LREAL  =      F    real-space projection
   NLSPLINE    = F    spline interpolate recip. space projectors
   LCOMPAT=      F    compatible to vasp.4.4
   GGA_COMPAT  = T    GGA compatible to vasp.4.4-vasp.4.6
   LMAXPAW     = -100 max onsite density
   LMAXMIX     =    2 max onsite mixed and CHGCAR
   VOSKOWN=      0    Vosko Wilk Nusair interpolation
   ROPT   =    0.00000
 Ionic relaxation
   EDIFFG = -.2E-01   stopping-criterion for IOM
   NSW    =      0    number of steps for IOM
   NBLOCK =      1;   KBLOCK =      1    inner block; outer block
   IBRION =     -1    ionic relax: 0-MD 1-quasi-New 2-CG
   NFREE  =      0    steps in history (QN), initial steepest desc. (CG)
   ISIF   =      2    stress and relaxation
   IWAVPR =     10    prediction:  0-non 1-charg 2-wave 3-comb
   ISYM   =      1    0-nonsym 1-usesym 2-fastsym
   LCORR  =      T    Harris-Foulkes like correction to forces

   POTIM  = 0.5000    time-step for ionic-motion
   TEIN   =    0.0    initial temperature
   TEBEG  =    0.0;   TEEND  =   0.0 temperature during run
   SMASS  =  -3.00    Nose mass-parameter (am)
   estimated Nose-frequenzy (Omega)   =  0.10E-29 period in steps = 0.13E+47 mass=  -0.174E-27a.u.
   SCALEE = 1.0000    scale energy and forces
   NPACO  =    256;   APACO  = 10.0  distance and # of slots for P.C.
   PSTRESS=    0.0 pullay stress

  Mass of Ions in am
   POMASS = 195.08
  Ionic Valenz
   ZVAL   =  16.00
  Atomic Wigner-Seitz radii
  virtual crystal weights
   VCA    =   1.00
   NELECT =      32.0000    total number of electrons
   NUPDOWN=      -1.0000    fix difference up-down

 DOS related values:
   EMIN   =  10.00;   EMAX   =-10.00  energy-range for DOS
   EFERMI =   0.00
   ISMEAR =     0;   SIGMA  =   0.05  broadening in eV -4-tet -1-fermi 0-gaus

 Electronic relaxation 2 (details)
   IALGO  =     38    algorithm
   LDIAG  =      T    sub-space diagonalisation (order eigenvalues)
[...]
   DQ        =  0.001000  dq finite difference perturbation B field
   LLRAUG    =     F  two centre corrections for induced B field

 Static calculation
 charge density and potential will be updated during run
 non-spin polarized calculation
 Variant of blocked Davidson
 Davidson routine will perform the subspace rotation
 perform sub-space diagonalisation
    after iterative eigenvector-optimisation
 modified Broyden-mixing scheme, WC =      100.0
 initial mixing is a Kerker type mixing with AMIX =  0.4000 and BMIX =      1.0000
 Hartree-type preconditioning will be used
 using additional bands            8
 reciprocal scheme for non local part
 use partial core corrections
 calculate Harris-corrections to forces
   (improved forces if not selfconsistent)
 use gradient corrections
 use of overlap-Matrix (Vanderbilt PP)
 Gauss-broadening in eV      SIGMA  =   0.05

  energy-cutoff  :      450.00
  volume of cell :       31.60
      direct lattice vectors                 reciprocal lattice vectors
     2.760000000  0.000000000  0.000000000     0.362318841  0.209184880  0.000000000
    -1.380000000  2.390230114  0.000000000     0.000000000  0.418369760  0.000000000
     0.000000000  0.000000000  4.790000000     0.000000000  0.000000000  0.208768267

[...]

 k-points in units of 2pi/SCALE and weight: Automatic mesh
   0.00000000  0.00000000  0.00000000       0.003
   0.04528986  0.02614811  0.00000000       0.016
   0.09057971  0.05229622  0.00000000       0.016
   0.13586957  0.07844433  0.00000000       0.016
   0.18115942  0.10459244  0.00000000       0.008
   0.04528986  0.07844433  0.00000000       0.016
   0.09057971  0.10459244  0.00000000       0.031
   0.13586957  0.13074055  0.00000000       0.031
   0.09057971  0.15688866  0.00000000       0.016
   0.13586957  0.18303677  0.00000000       0.016
   0.00000000  0.00000000  0.03479471       0.005
   0.04528986  0.02614811  0.03479471       0.031
   0.09057971  0.05229622  0.03479471       0.031
   0.13586957  0.07844433  0.03479471       0.031
   0.18115942  0.10459244  0.03479471       0.016
   0.04528986  0.07844433  0.03479471       0.031
   0.09057971  0.10459244  0.03479471       0.062
   0.13586957  0.13074055  0.03479471       0.062
   0.09057971  0.15688866  0.03479471       0.031
   0.13586957  0.18303677  0.03479471       0.031
   0.00000000  0.00000000  0.06958942       0.005
   0.04528986  0.02614811  0.06958942       0.031
   0.09057971  0.05229622  0.06958942       0.031
   0.13586957  0.07844433  0.06958942       0.031
   0.18115942  0.10459244  0.06958942       0.016
   0.04528986  0.07844433  0.06958942       0.031
   0.09057971  0.10459244  0.06958942       0.062
   0.13586957  0.13074055  0.06958942       0.062
   0.09057971  0.15688866  0.06958942       0.031
   0.13586957  0.18303677  0.06958942       0.031
   0.00000000  0.00000000  0.10438413       0.003
   0.04528986  0.02614811  0.10438413       0.016
   0.09057971  0.05229622  0.10438413       0.016
   0.13586957  0.07844433  0.10438413       0.016
   0.18115942  0.10459244  0.10438413       0.008
   0.04528986  0.07844433  0.10438413       0.016
   0.09057971  0.10459244  0.10438413       0.031
   0.13586957  0.13074055  0.10438413       0.031
   0.09057971  0.15688866  0.10438413       0.016
   0.13586957  0.18303677  0.10438413       0.016

 k-points in reciprocal lattice and weights: Automatic mesh
   0.00000000  0.00000000  0.00000000       0.003
   0.12500000 -0.00000000  0.00000000       0.016
   0.25000000 -0.00000000  0.00000000       0.016
   0.37500000 -0.00000000  0.00000000       0.016
   0.50000000 -0.00000000  0.00000000       0.008
   0.12500000  0.12500000  0.00000000       0.016
   0.25000000  0.12500000  0.00000000       0.031
   0.37500000  0.12500000  0.00000000       0.031
   0.25000000  0.25000000  0.00000000       0.016
   0.37500000  0.25000000  0.00000000       0.016
   0.00000000  0.00000000  0.16666667       0.005
   0.12500000 -0.00000000  0.16666667       0.031
   0.25000000 -0.00000000  0.16666667       0.031
   0.37500000 -0.00000000  0.16666667       0.031
   0.50000000 -0.00000000  0.16666667       0.016
   0.12500000  0.12500000  0.16666667       0.031
   0.25000000  0.12500000  0.16666667       0.062
   0.37500000  0.12500000  0.16666667       0.062
   0.25000000  0.25000000  0.16666667       0.031
   0.37500000  0.25000000  0.16666667       0.031
   0.00000000  0.00000000  0.33333333       0.005
   0.12500000 -0.00000000  0.33333333       0.031
   0.25000000 -0.00000000  0.33333333       0.031
   0.37500000 -0.00000000  0.33333333       0.031
   0.50000000 -0.00000000  0.33333333       0.016
   0.12500000  0.12500000  0.33333333       0.031
   0.25000000  0.12500000  0.33333333       0.062
   0.37500000  0.12500000  0.33333333       0.062
   0.25000000  0.25000000  0.33333333       0.031
   0.37500000  0.25000000  0.33333333       0.031
   0.00000000  0.00000000  0.50000000       0.003
   0.12500000 -0.00000000  0.50000000       0.016
   0.25000000 -0.00000000  0.50000000       0.016
   0.37500000 -0.00000000  0.50000000       0.016
   0.50000000 -0.00000000  0.50000000       0.008
   0.12500000  0.12500000  0.50000000       0.016
   0.25000000  0.12500000  0.50000000       0.031
   0.37500000  0.12500000  0.50000000       0.031
   0.25000000  0.25000000  0.50000000       0.016
   0.37500000  0.25000000  0.50000000       0.016

 position of ions in fractional coordinates (direct lattice)
   0.00000000  0.00000000  0.00000000
   0.33333333  0.66666667  0.50000000

 position of ions in cartesian coordinates  (Angst):
   0.00000000  0.00000000  0.00000000
   0.00000000  1.59348674  2.39500000

 k-point   1 :   0.0000 0.0000 0.0000  plane waves:     713
 k-point   2 :   0.1250-0.0000 0.0000  plane waves:     691
 k-point   3 :   0.2500-0.0000 0.0000  plane waves:     682
 k-point   4 :   0.3750-0.0000 0.0000  plane waves:     688
 k-point   5 :   0.5000-0.0000 0.0000  plane waves:     700
 k-point   6 :   0.1250 0.1250 0.0000  plane waves:     691
 k-point   7 :   0.2500 0.1250 0.0000  plane waves:     682
 k-point   8 :   0.3750 0.1250 0.0000  plane waves:     689
 k-point   9 :   0.2500 0.2500 0.0000  plane waves:     673
 k-point  10 :   0.3750 0.2500 0.0000  plane waves:     691
 k-point  11 :   0.0000 0.0000 0.1667  plane waves:     689
 k-point  12 :   0.1250-0.0000 0.1667  plane waves:     690
 k-point  13 :   0.2500-0.0000 0.1667  plane waves:     680
 k-point  14 :   0.3750-0.0000 0.1667  plane waves:     689
 k-point  15 :   0.5000-0.0000 0.1667  plane waves:     694
 k-point  16 :   0.1250 0.1250 0.1667  plane waves:     682
 k-point  17 :   0.2500 0.1250 0.1667  plane waves:     684
 k-point  18 :   0.3750 0.1250 0.1667  plane waves:     685
 k-point  19 :   0.2500 0.2500 0.1667  plane waves:     681
 k-point  20 :   0.3750 0.2500 0.1667  plane waves:     683
 k-point  21 :   0.0000 0.0000 0.3333  plane waves:     688
 k-point  22 :   0.1250-0.0000 0.3333  plane waves:     681
 k-point  23 :   0.2500-0.0000 0.3333  plane waves:     682
 k-point  24 :   0.3750-0.0000 0.3333  plane waves:     688
 k-point  25 :   0.5000-0.0000 0.3333  plane waves:     690
 k-point  26 :   0.1250 0.1250 0.3333  plane waves:     678
 k-point  27 :   0.2500 0.1250 0.3333  plane waves:     687
 k-point  28 :   0.3750 0.1250 0.3333  plane waves:     687
 k-point  29 :   0.2500 0.2500 0.3333  plane waves:     687
 k-point  30 :   0.3750 0.2500 0.3333  plane waves:     680
 k-point  31 :   0.0000 0.0000 0.5000  plane waves:     688
 k-point  32 :   0.1250-0.0000 0.5000  plane waves:     690
 k-point  33 :   0.2500-0.0000 0.5000  plane waves:     674
 k-point  34 :   0.3750-0.0000 0.5000  plane waves:     680
 k-point  35 :   0.5000-0.0000 0.5000  plane waves:     676
 k-point  36 :   0.1250 0.1250 0.5000  plane waves:     676
 k-point  37 :   0.2500 0.1250 0.5000  plane waves:     686
 k-point  38 :   0.3750 0.1250 0.5000  plane waves:     688
 k-point  39 :   0.2500 0.2500 0.5000  plane waves:     700
 k-point  40 :   0.3750 0.2500 0.5000  plane waves:     688

 maximum and minimum number of plane-waves per node :       713      673

 maximum number of plane-waves:       713
 maximum index in each direction:
   IXMAX=    4   IYMAX=    4   IZMAX=    8
   IXMIN=   -5   IYMIN=   -5   IZMIN=   -8

 serial   3D FFT for wavefunctions
 parallel 3D FFT for charge:
    minimum data exchange during FFTs selected (reduces bandwidth)

 Broyden mixing: mesh for mixing (old mesh)
   NGX =  9   NGY =  9   NGZ = 17
  (NGX  = 40   NGY  = 40   NGZ  = 72)
  gives a total of   1377 points

 initial charge density was supplied:
 charge density of overlapping atoms calculated
 number of electron      32.0000000 magnetization
 keeping initial charge density in first step

 Maximum index for augmentation-charges          730 (set IRDMAX)

 First call to EWALD:  gamma=   0.561
 Maximum number of real-space cells 3x 3x 2
 Maximum number of reciprocal cells 2x 2x 4

--------------------------------------- Iteration      1(   1)  ---------------------------------------

 eigenvalue-minimisations  :  1920
 total energy-change (2. order) : 0.1426263E+03  (-0.2310363E+04)
 number of electron      32.0000000 magnetization
 augmentation part       32.0000000 magnetization

 Free energy of the ion-electron system (eV)
  alpha Z        PSCENC =       303.71314961
  Ewald energy   TEWEN  =     -4240.69024974
  -Hartree energ DENC   =      -819.48907223
  -exchange      EXHF   =         0.00000000
  -V(xc)+E(xc)   XCENC  =       127.32804754
  PAW double counting   =      4131.50523274    -4061.67189606
  entropy T*S    EENTRO =        -0.00267006
  eigenvalues    EBANDS =      -154.49585918
  atomic energy  EATOM  =      4856.42966544
  Solvation  Ediel_sol  =         0.00000000
  free energy    TOTEN  =       142.62634808 eV

  energy without entropy =      142.62901813  energy(sigma->0) =      142.62768310

[...]

 eigenvalue-minimisations  :  2088
 total energy-change (2. order) :-0.1541128E+03  (-0.1534598E+03)
 number of electron      32.0000000 magnetization
 augmentation part       32.0000000 magnetization

[...]

 Broyden mixing:
  rms(total) = 0.19701E+01    rms(broyden)= 0.19699E+01
  rms(prec ) = 0.21864E+01
  weight for this iteration     100.00

[...]

 eigenvalues of (default mixing * dielectric matrix)
  average eigenvalue GAMMA=   1.4095
  1.4095

[...]

 eigenvalue-minimisations  :  2208
 total energy-change (2. order) :-0.1315146E-04  (-0.8300942E-06)
 number of electron      31.9999996 magnetization
 augmentation part        8.2287752 magnetization

 Broyden mixing:
  rms(total) = 0.88282E-03    rms(broyden)= 0.88254E-03
  rms(prec ) = 0.10374E-02
  weight for this iteration     100.00

 eigenvalues of (default mixing * dielectric matrix)
  average eigenvalue GAMMA=   1.7148
  2.6990  2.2940  0.9811  1.4165  1.1833

[...]

--------------------------------------- Iteration      1(  11)  ---------------------------------------

 eigenvalue-minimisations  :  1800
 total energy-change (2. order) : 0.4066178E-06  (-0.9734094E-07)
 number of electron      31.9999996 magnetization
 augmentation part        8.2287752 magnetization

 Free energy of the ion-electron system (eV)
  alpha Z        PSCENC =       303.71314961
  Ewald energy   TEWEN  =     -4240.69024974
  -Hartree energ DENC   =      -781.08665414
  -exchange      EXHF   =         0.00000000
  -V(xc)+E(xc)   XCENC  =       125.63625948
  PAW double counting   =      4631.83200230    -4566.93141176
  entropy T*S    EENTRO =        -0.00622992
  eigenvalues    EBANDS =      -340.91766720
  atomic energy  EATOM  =      4856.42966544
  Solvation  Ediel_sol  =         0.00000000
  free energy    TOTEN  =       -12.02113592 eV

  energy without entropy =      -12.01490600  energy(sigma->0) =      -12.01802096

 average (electrostatic) potential at core
  the test charge radii are     0.9952
  (the norm of the test charge is              1.0000)
       1 -89.4717       2 -89.4717

 E-fermi :  11.1200     XC(G=0): -13.6981     alpha+bet :-16.6031

 Fermi energy:        11.1199708203

 k-point     1 :       0.0000    0.0000    0.0000
  band No.  band energies     occupation
      1     -41.4842      2.00000
      2     -41.2856      2.00000
      3     -41.2856      2.00000
      4     -41.2454      2.00000
      5     -41.2454      2.00000
      6     -41.1553      2.00000
      7       1.4221      2.00000
      8       4.0814      2.00000
      9       7.2018      2.00000
     10       7.7321      2.00000
     11       7.7321      2.00000
     12       8.0977      2.00000
     13       8.0977      2.00000
     14       9.3383      2.00000
     15       9.3383      2.00000
     16      10.4073      2.00000
     17      10.9160      2.00000
     18      10.9160      2.00000
     19      15.8014      0.00000
     20      26.2401      0.00000
     21      26.8067      0.00000
     22      28.3945      0.00000
     23      32.1572      0.00000
     24      32.1572      0.00000

[...]

 k-point    40 :       0.3750    0.2500    0.5000
  band No.  band energies     occupation
      1     -41.5901      2.00000
      2     -41.5901      2.00000
      3     -41.4836      2.00000
      4     -41.4836      2.00000
      5     -41.2413      2.00000
      6     -41.2413      2.00000
      7       5.7665      2.00000
      8       5.7665      2.00000
      9       6.6729      2.00000
     10       6.6729      2.00000
     11       7.6020      2.00000
     12       7.6020      2.00000
     13       8.9812      2.00000
     14       8.9812      2.00000
     15      11.0169      1.99644
     16      11.0169      1.99644
     17      16.5839      0.00000
     18      16.5839      0.00000
     19      17.7789      0.00000
     20      17.7789      0.00000
     21      21.2016      0.00000
     22      21.2016      0.00000
     23      27.6712      0.00000
     24      27.6712      0.00000

 soft charge-density along one line, spin component           1
         0         1         2         3         4         5         6         7         8         9
 total charge-density along one line

------------------------ aborting loop because EDIFF is reached ----------------------------------------

  FORCE on cell =-STRESS in cart. coord.  units (eV):
  Direction    XX          YY          ZZ          XY          YZ          ZX
  Alpha Z   303.71315   303.71315   303.71315
  Ewald   -1374.27429 -1374.27429 -1492.14368     0.00000     0.00000    -0.00000
  Hartree   278.22799   278.22799   224.63255    -0.00000    -0.00000    -0.00000
  E(xc)    -170.77008  -170.77008  -171.00923    -0.00000    -0.00000    -0.00000
  Local     182.24394   182.24392   343.89341    -0.00001    -0.00000    -0.00000
  n-local   -59.18088   -60.87313   -63.31544   -12.91309     3.22790     3.29233
  augment   145.60687   145.60688   148.94935     0.00001    -0.00000     0.00000
  Kinetic   697.88769   692.36129   704.37605   -15.72368     3.19499     0.81179
  Fock        0.00000     0.00000     0.00000     0.00000     0.00000     0.00000
  Total      -0.15494    -0.15494    -0.90384    -0.00000     0.00000     0.00000
  in kB      -7.85598    -7.85598   -45.82642    -0.00000     0.00000     0.00000

 VOLUME and BASIS-vectors are now :
  energy-cutoff  :      450.00
  volume of cell :       31.60
      direct lattice vectors                 reciprocal lattice vectors
     2.760000000  0.000000000  0.000000000     0.362318841  0.209184880  0.000000000
    -1.380000000  2.390230114  0.000000000     0.000000000  0.418369760  0.000000000
     0.000000000  0.000000000  4.790000000     0.000000000  0.000000000  0.208768267

  length of vectors
     2.760000000  2.760000000  4.790000000     0.418369760  0.418369760  0.208768267

 FORCES acting on ions
    electron-ion (+dipol)            ewald-force                    non-local-force                 convergence-correction
   0.378E-06 -.218E-06 0.610E-13   0.179E-11 -.111E-11 -.683E-13   0.590E-16 -.139E-16 0.000E+00   -.578E-08 0.334E-08 -.346E-13
   -.291E-06 0.168E-06 -.302E-11   -.176E-11 0.110E-11 0.683E-13   -.555E-16 0.139E-16 0.000E+00   0.580E-08 -.335E-08 0.271E-13
   0.863E-07 -.498E-07 -.296E-11   0.219E-13 -.314E-14 0.000E+00   0.347E-17 0.000E+00 0.000E+00   0.148E-10 -.869E-11 -.742E-14

 POSITION                                       TOTAL-FORCE (eV/Angst)
      0.00000      0.00000      0.00000        -0.000000      0.000000      0.000000
      0.00000      1.59349      2.39500         0.000000      0.000000      0.000000
    total drift:                                0.000000     -0.000000     -0.000000

  FREE ENERGIE OF THE ION-ELECTRON SYSTEM (eV)
  free  energy   TOTEN  =       -12.02113592 eV

  energy  without entropy=      -12.01490600  energy(sigma->0) =      -12.01802096