 vasp.6.3.2 27Jun22 (build Aug 12 2022 00:53:59) complex

 executed on               tv2STD date 2024.11.30  16:05:37

 INCAR:
   SYSTEM = Pt-hcc
   NWRITE = 2    write-flag
   ISTART = 0    job   : 0-new, 1-cont, 2-samecut
   ICHARG = 2    charge: 0-wave, 1-file, 2-atom, >10-const
   INIWAV = 1    electr: 0-lowe 1-rand  2-diag
   ENCUT = 450.0     energy cutoff in eV
   PREC = Accurate      normal | accurate
   ADDGRID = .FALSE.  (use fine grid)
   NELM = 100     number of ELM steps
   EDIFF = 1E-06    energy stopping-criterion for ELM
   LREAL = .FALSE.      real-space projection (.FALSE., .TRUE., On, Auto)
   ALGO = Normal     Normal, Fast, Very_Fast
   LWAVE = .TRUE.
   LCHARG = .TRUE.
   NSW = 100       max number of geometry steps
   IBRION = 2     ionic relax: 0-MD, 1-quasi-Newton, 2-CG, 3-Damped MD
   EDIFFG = -0.02  force (eV/A) stopping-criterion for geometry steps
   ISIF = 3     (1:force\=y stress\=trace only ions\=y shape\=n volume\=n)
   ISYM = 1     (1-use symmetry, 0-no symmetry)
   ISMEAR = 0     (-1-Fermi, 1-Methfessel/Paxton)
   SIGMA = 0.05   broadening in eV
   LORBIT = 11

 POTCAR:    PAW_PBE Pt_pv 12Dec2005
 POTCAR:    PAW_PBE Pt_pv 12Dec2005
   VRHFIN =Pt: 5ps1d9

   TITEL  = PAW_PBE Pt_pv 12Dec2005
   POMASS =  195.080; ZVAL   =   16.000    mass and valenz
   ENMAX  =  294.607; ENMIN  =  220.955 eV

  PAW_PBE Pt_pv 12Dec2005               :

 POSCAR: Pt
  positions in cartesian coordinates
 exchange correlation table for  LEXCH =        8
   RHO(1)=    0.500       N(1)  =     2000
   RHO(2)=  100.500       N(2)  =     4000

 ion  position               nearest neighbor table
   1  0.000  0.000  0.000-
   2  0.333  0.667  0.500-

  LATTYP: Found a hexagonal cell.
 ALAT       =     2.7600000000
 C/A-ratio  =     1.7355072464

  Lattice vectors:

 A1 = (   2.7600000000,   0.0000000000,   0.0000000000)
 A2 = (  -1.3800000000,   2.3902301144,   0.0000000000)
 A3 = (   0.0000000000,   0.0000000000,   4.7900000000)

Analysis of symmetry for initial positions (statically):
 Subroutine PRICEL returns:
 Original cell was already a primitive cell.

 Routine SETGRP: Setting up the symmetry group for a
 hexagonal supercell.

 Subroutine GETGRP returns: Found 24 space group operations
 (whereof 12 operations were pure point group operations)
 out of a pool of 24 trial point group operations.

The static configuration has the point symmetry D_3h.
 The point group associated with its full space group is D_6h.

Analysis of symmetry for dynamics (positions and initial velocities):
 Subroutine PRICEL returns:
 Original cell was already a primitive cell.

 Routine SETGRP: Setting up the symmetry group for a
 hexagonal supercell.

 Subroutine GETGRP returns: Found 24 space group operations
 (whereof 12 operations were pure point group operations)
 out of a pool of 24 trial point group operations.

The dynamic configuration has the point symmetry D_3h.
 The point group associated with its full space group is D_6h.

 Subroutine INISYM returns: Found 24 space group operations
 (whereof 12 operations are pure point group operations),
 and found     1 'primitive' translations

                                     Primitive cell

  volume of cell :      31.5998

  direct lattice vectors                    reciprocal lattice vectors
     2.760000000  0.000000000  0.000000000     0.362318841  0.209184880  0.000000000
    -1.380000000  2.390230114  0.000000000     0.000000000  0.418369760  0.000000000
     0.000000000  0.000000000  4.790000000     0.000000000  0.000000000  0.208768267

  length of vectors
     2.760000000  2.760000000  4.790000000     0.418369760  0.418369760  0.208768267

  position of ions in fractional coordinates (direct lattice)
     0.000000000  0.000000000  0.000000000
     0.333333333  0.666666667  0.500000000

  ion indices of the primitive-cell ions
   primitive index   ion index
                 1           1
                 2           2

 KPOINTS: Automatic mesh

Automatic generation of k-mesh.
 Grid dimensions read from file:
 generate k-points for:   10   10    8

 Generating k-lattice:

  Cartesian coordinates                     Fractional coordinates (reciprocal lattice)
     0.036231884  0.020918488  0.000000000     0.100000000  0.000000000  0.000000000
     0.000000000  0.041836976  0.000000000     0.000000000  0.100000000  0.000000000
     0.000000000  0.000000000  0.026096033     0.000000000  0.000000000  0.125000000

  Length of vectors
     0.041836976  0.041836976  0.026096033

  Shift w.r.t. Gamma in fractional coordinates (k-lattice)
     0.000000000  0.000000000  0.000000000

 Subroutine IBZKPT returns following result:

 Found     70 irreducible k-points:

 Following reciprocal coordinates:
            Coordinates               Weight
  0.000000  0.000000  0.000000      1.000000
  0.100000 -0.000000  0.000000      6.000000
  0.200000 -0.000000  0.000000      6.000000
  0.300000  0.000000  0.000000      6.000000
  0.400000 -0.000000  0.000000      6.000000
  0.500000 -0.000000  0.000000      3.000000
  0.100000  0.100000  0.000000      6.000000
  0.200000  0.100000  0.000000     12.000000
  0.300000  0.100000  0.000000     12.000000
  0.400000  0.100000  0.000000     12.000000
  0.200000  0.200000  0.000000      6.000000
  0.300000  0.200000  0.000000     12.000000
  0.400000  0.200000  0.000000      6.000000
  0.300000  0.300000  0.000000      6.000000
  0.000000  0.000000  0.125000      2.000000
  0.100000 -0.000000  0.125000     12.000000
  0.200000 -0.000000  0.125000     12.000000
  0.300000  0.000000  0.125000     12.000000
  0.400000 -0.000000  0.125000     12.000000
  0.500000 -0.000000  0.125000      6.000000
  0.100000  0.100000  0.125000     12.000000
  0.200000  0.100000  0.125000     24.000000
  0.300000  0.100000  0.125000     24.000000
  0.400000  0.100000  0.125000     24.000000
  0.200000  0.200000  0.125000     12.000000
  0.300000  0.200000  0.125000     24.000000
  0.400000  0.200000  0.125000     12.000000
  0.300000  0.300000  0.125000     12.000000
  0.000000  0.000000  0.250000      2.000000
  0.100000 -0.000000  0.250000     12.000000
  0.200000 -0.000000  0.250000     12.000000
  0.300000  0.000000  0.250000     12.000000
  0.400000 -0.000000  0.250000     12.000000
  0.500000 -0.000000  0.250000      6.000000
  0.100000  0.100000  0.250000     12.000000
  0.200000  0.100000  0.250000     24.000000
  0.300000  0.100000  0.250000     24.000000
  0.400000  0.100000  0.250000     24.000000
  0.200000  0.200000  0.250000     12.000000
  0.300000  0.200000  0.250000     24.000000
  0.400000  0.200000  0.250000     12.000000
  0.300000  0.300000  0.250000     12.000000
  0.000000  0.000000  0.375000      2.000000
  0.100000 -0.000000  0.375000     12.000000
  0.200000 -0.000000  0.375000     12.000000
  0.300000  0.000000  0.375000     12.000000
  0.400000 -0.000000  0.375000     12.000000
  0.500000 -0.000000  0.375000      6.000000
  0.100000  0.100000  0.375000     12.000000
  0.200000  0.100000  0.375000     24.000000
  0.300000  0.100000  0.375000     24.000000
  0.400000  0.100000  0.375000     24.000000
  0.200000  0.200000  0.375000     12.000000
  0.300000  0.200000  0.375000     24.000000
  0.400000  0.200000  0.375000     12.000000
  0.300000  0.300000  0.375000     12.000000
  0.000000  0.000000  0.500000      1.000000
  0.100000 -0.000000  0.500000      6.000000
  0.200000 -0.000000  0.500000      6.000000
  0.300000  0.000000  0.500000      6.000000
  0.400000 -0.000000  0.500000      6.000000
  0.500000 -0.000000  0.500000      3.000000
  0.100000  0.100000  0.500000      6.000000
  0.200000  0.100000  0.500000     12.000000
  0.300000  0.100000  0.500000     12.000000
  0.400000  0.100000  0.500000     12.000000
  0.200000  0.200000  0.500000      6.000000
  0.300000  0.200000  0.500000     12.000000
  0.400000  0.200000  0.500000      6.000000
  0.300000  0.300000  0.500000      6.000000

 Following cartesian coordinates:
            Coordinates               Weight
  0.000000  0.000000  0.000000      1.000000
  0.036232  0.020918  0.000000      6.000000
  0.072464  0.041837  0.000000      6.000000
  0.108696  0.062755  0.000000      6.000000
  0.144928  0.083674  0.000000      6.000000
  0.181159  0.104592  0.000000      3.000000
  0.036232  0.062755  0.000000      6.000000
  0.072464  0.083674  0.000000     12.000000
  0.108696  0.104592  0.000000     12.000000
  0.144928  0.125511  0.000000     12.000000
  0.072464  0.125511  0.000000      6.000000
  0.108696  0.146429  0.000000     12.000000
  0.144928  0.167348  0.000000      6.000000
  0.108696  0.188266  0.000000      6.000000
  0.000000  0.000000  0.026096      2.000000
  0.036232  0.020918  0.026096     12.000000
  0.072464  0.041837  0.026096     12.000000
  0.108696  0.062755  0.026096     12.000000
  0.144928  0.083674  0.026096     12.000000
  0.181159  0.104592  0.026096      6.000000
  0.036232  0.062755  0.026096     12.000000
  0.072464  0.083674  0.026096     24.000000
  0.108696  0.104592  0.026096     24.000000
  0.144928  0.125511  0.026096     24.000000
  0.072464  0.125511  0.026096     12.000000
  0.108696  0.146429  0.026096     24.000000
  0.144928  0.167348  0.026096     12.000000
  0.108696  0.188266  0.026096     12.000000
  0.000000  0.000000  0.052192      2.000000
  0.036232  0.020918  0.052192     12.000000
  0.072464  0.041837  0.052192     12.000000
  0.108696  0.062755  0.052192     12.000000
  0.144928  0.083674  0.052192     12.000000
  0.181159  0.104592  0.052192      6.000000
  0.036232  0.062755  0.052192     12.000000
  0.072464  0.083674  0.052192     24.000000
  0.108696  0.104592  0.052192     24.000000
  0.144928  0.125511  0.052192     24.000000
  0.072464  0.125511  0.052192     12.000000
  0.108696  0.146429  0.052192     24.000000
  0.144928  0.167348  0.052192     12.000000
  0.108696  0.188266  0.052192     12.000000
  0.000000  0.000000  0.078288      2.000000
  0.036232  0.020918  0.078288     12.000000
  0.072464  0.041837  0.078288     12.000000
  0.108696  0.062755  0.078288     12.000000
  0.144928  0.083674  0.078288     12.000000
  0.181159  0.104592  0.078288      6.000000
  0.036232  0.062755  0.078288     12.000000
  0.072464  0.083674  0.078288     24.000000
  0.108696  0.104592  0.078288     24.000000
  0.144928  0.125511  0.078288     24.000000
  0.072464  0.125511  0.078288     12.000000
  0.108696  0.146429  0.078288     24.000000
  0.144928  0.167348  0.078288     12.000000
  0.108696  0.188266  0.078288     12.000000
  0.000000  0.000000  0.104384      1.000000
  0.036232  0.020918  0.104384      6.000000
  0.072464  0.041837  0.104384      6.000000
  0.108696  0.062755  0.104384      6.000000
  0.144928  0.083674  0.104384      6.000000
  0.181159  0.104592  0.104384      3.000000
  0.036232  0.062755  0.104384      6.000000
  0.072464  0.083674  0.104384     12.000000
  0.108696  0.104592  0.104384     12.000000
  0.144928  0.125511  0.104384     12.000000
  0.072464  0.125511  0.104384      6.000000
  0.108696  0.146429  0.104384     12.000000
  0.144928  0.167348  0.104384      6.000000
  0.108696  0.188266  0.104384      6.000000

 SYSTEM =  Pt-hcc
 POSCAR =  Pt

[...]
 k-point  37 :   0.3000 0.1000 0.2500  plane waves:     687
 k-point  38 :   0.4000 0.1000 0.2500  plane waves:     686
 k-point  39 :   0.2000 0.2000 0.2500  plane waves:     684
 k-point  40 :   0.3000 0.2000 0.2500  plane waves:     685
 k-point  41 :   0.4000 0.2000 0.2500  plane waves:     683
 k-point  42 :   0.3000 0.3000 0.2500  plane waves:     680
 k-point  43 :   0.0000 0.0000 0.3750  plane waves:     676
 k-point  44 :   0.1000-0.0000 0.3750  plane waves:     683
 k-point  45 :   0.2000-0.0000 0.3750  plane waves:     679
 k-point  46 :   0.3000 0.0000 0.3750  plane waves:     685
 k-point  47 :   0.4000-0.0000 0.3750  plane waves:     689
 k-point  48 :   0.5000-0.0000 0.3750  plane waves:     690
 k-point  49 :   0.1000 0.1000 0.3750  plane waves:     678
 k-point  50 :   0.2000 0.1000 0.3750  plane waves:     682
 k-point  51 :   0.3000 0.1000 0.3750  plane waves:     684
 k-point  52 :   0.4000 0.1000 0.3750  plane waves:     688
 k-point  53 :   0.2000 0.2000 0.3750  plane waves:     689
 k-point  54 :   0.3000 0.2000 0.3750  plane waves:     687
 k-point  55 :   0.4000 0.2000 0.3750  plane waves:     684
 k-point  56 :   0.3000 0.3000 0.3750  plane waves:     686
 k-point  57 :   0.0000 0.0000 0.5000  plane waves:     688
 k-point  58 :   0.1000-0.0000 0.5000  plane waves:     682
 k-point  59 :   0.2000-0.0000 0.5000  plane waves:     684
 k-point  60 :   0.3000 0.0000 0.5000  plane waves:     680
 k-point  61 :   0.4000-0.0000 0.5000  plane waves:     680
 k-point  62 :   0.5000-0.0000 0.5000  plane waves:     676
 k-point  63 :   0.1000 0.1000 0.5000  plane waves:     676
 k-point  64 :   0.2000 0.1000 0.5000  plane waves:     684
 k-point  65 :   0.3000 0.1000 0.5000  plane waves:     686
 k-point  66 :   0.4000 0.1000 0.5000  plane waves:     694
 k-point  67 :   0.2000 0.2000 0.5000  plane waves:     694
 k-point  68 :   0.3000 0.2000 0.5000  plane waves:     690
 k-point  69 :   0.4000 0.2000 0.5000  plane waves:     686
 k-point  70 :   0.3000 0.3000 0.5000  plane waves:     686

 maximum and minimum number of plane-waves per node :       713      673

 maximum number of plane-waves:       713
 maximum index in each direction:
   IXMAX=    4   IYMAX=    4   IZMAX=    8
   IXMIN=   -5   IYMIN=   -5   IZMIN=   -8

 serial   3D FFT for wavefunctions
 parallel 3D FFT for charge:
    minimum data exchange during FFTs selected (reduces bandwidth)

 Broyden mixing: mesh for mixing (old mesh)
   NGX =  9   NGY =  9   NGZ = 17
  (NGX  = 40   NGY  = 40   NGZ  = 72)
  gives a total of   1377 points

 initial charge density was supplied:
 charge density of overlapping atoms calculated
 number of electron      32.0000000 magnetization
 keeping initial charge density in first step

 Maximum index for augmentation-charges          730 (set IRDMAX)

 First call to EWALD:  gamma=   0.561
 Maximum number of real-space cells 3x 3x 2
 Maximum number of reciprocal cells 2x 2x 4

--------------------------------------- Iteration      1(   1)  ---------------------------------------

 eigenvalue-minimisations  :  3384
 total energy-change (2. order) : 0.1415187E+03  (-0.2323620E+04)
 number of electron      32.0000000 magnetization
 augmentation part       32.0000000 magnetization

 Free energy of the ion-electron system (eV)
  alpha Z        PSCENC =       303.71314961
  Ewald energy   TEWEN  =     -4240.69024974
  -Hartree energ DENC   =      -819.48907223
  -exchange      EXHF   =         0.00000000
  -V(xc)+E(xc)   XCENC  =       127.32804754
  PAW double counting   =      4131.50523274    -4061.67189606
  entropy T*S    EENTRO =        -0.00105780
  eigenvalues    EBANDS =      -155.60515051
  atomic energy  EATOM  =      4856.42966544
  Solvation  Ediel_sol  =         0.00000000
  free energy    TOTEN  =       141.51866900 eV

  energy without entropy =      141.51972680  energy(sigma->0) =      141.51919790

[...]

 eigenvalue-minimisations  :  3576
 total energy-change (2. order) :-0.1528670E+03  (-0.1520691E+03)
 number of electron      32.0000000 magnetization
 augmentation part       32.0000000 magnetization

[...]

 Broyden mixing:
  rms(total) = 0.19706E+01    rms(broyden)= 0.19705E+01
  rms(prec ) = 0.21889E+01
  weight for this iteration     100.00

[...]

 eigenvalues of (default mixing * dielectric matrix)
  average eigenvalue GAMMA=   1.4084
  1.4084

[...]

 average (electrostatic) potential at core
  the test charge radii are     0.9952
  (the norm of the test charge is              1.0000)
       1 -89.4835       2 -89.4835

 E-fermi :  11.1241     XC(G=0): -13.6991     alpha+bet :-16.6031

 Fermi energy:        11.1240827259

 k-point     1 :       0.0000    0.0000    0.0000
  band No.  band energies     occupation
      1     -41.4740      2.00000
      2     -41.3058      2.00000
      3     -41.3058      2.00000
      4     -41.2657      2.00000
      5     -41.2657      2.00000
      6     -41.1453      2.00000
      7       1.4206      2.00000
      8       4.0667      2.00000
      9       7.2029      2.00000
     10       7.7101      2.00000
     11       7.7101      2.00000
     12       8.0748      2.00000
     13       8.0748      2.00000
     14       9.3447      2.00000
     15       9.3447      2.00000
     16      10.4207      2.00000
     17      10.9207      2.00000
     18      10.9207      2.00000
     19      15.8071      0.00000
     20      26.2267      0.00000
     21      26.8066      0.00000
     22      28.3761      0.00000
     23      32.1699      0.00000
     24      32.1699      0.00000

[...]

 soft charge-density along one line, spin component           1
         0         1         2         3         4         5         6         7         8         9
 total charge-density along one line

------------------------ aborting loop because EDIFF is reached ----------------------------------------

 total charge

# of ion       s       p       d       tot
    1        0.336   6.076   7.065  13.477
    2        0.336   6.076   7.065  13.477
tot          0.672  12.152  14.130  26.954

  FORCE on cell =-STRESS in cart. coord.  units (eV):
  Direction    XX          YY          ZZ          XY          YZ          ZX
  Alpha Z   303.71315   303.71315   303.71315
  Ewald   -1374.27429 -1374.27429 -1492.14368     0.00000     0.00000    -0.00000
  Hartree   277.64387   277.64387   225.51184    -0.00000    -0.00000    -0.00000
  E(xc)    -170.75822  -170.75822  -170.99770    -0.00000    -0.00000    -0.00000
  Local     183.58348   183.58347   341.25130    -0.00002    -0.00000    -0.00000
  n-local   -59.06055   -61.46635   -62.42321   -13.16142     3.58647     3.33628
  augment   145.53142   145.53143   149.12275     0.00001    -0.00000    -0.00000
  Kinetic   697.40292   691.32602   705.48730   -16.72879     3.60500     1.04329
  Fock        0.00000     0.00000     0.00000     0.00000     0.00000     0.00000
  Total      -0.45958    -0.45958    -0.47824     0.00000     0.00000    -0.00000
  in kB     -23.30149   -23.30149   -24.24765     0.00000     0.00000    -0.00000

 VOLUME and BASIS-vectors are now :
  energy-cutoff  :      450.00
  volume of cell :       31.60
      direct lattice vectors                 reciprocal lattice vectors
     2.760000000  0.000000000  0.000000000     0.362318841  0.209184880  0.000000000
    -1.380000000  2.390230114  0.000000000     0.000000000  0.418369760  0.000000000
     0.000000000  0.000000000  4.790000000     0.000000000  0.000000000  0.208768267

[...]

 FORCES acting on ions
    electron-ion (+dipol)            ewald-force                    non-local-force                 convergence-correction
   0.374E-06 -.216E-06 -.286E-13   0.179E-11 -.111E-11 -.683E-13   -.243E-16 0.000E+00 0.000E+00   -.525E-08 0.303E-08 -.114E-12
   -.288E-06 0.166E-06 -.310E-11   -.176E-11 0.110E-11 0.683E-13   0.243E-16 0.000E+00 0.000E+00   0.527E-08 -.304E-08 0.241E-13
   0.861E-07 -.497E-07 -.313E-11   0.219E-13 -.314E-14 0.000E+00   0.000E+00 0.000E+00 0.000E+00   0.120E-10 -.711E-11 -.902E-13

 POSITION                                       TOTAL-FORCE (eV/Angst)
      0.00000      0.00000      0.00000         0.000000      0.000000      0.000000
      0.00000      1.59349      2.39500        -0.000000     -0.000000      0.000000
    total drift:                                0.000000     -0.000000     -0.000000

  FREE ENERGIE OF THE ION-ELECTRON SYSTEM (eV)
  free  energy   TOTEN  =       -12.03989690 eV

  energy  without entropy=      -12.03518153  energy(sigma->0) =      -12.03753922

[...]

 d Force = 0.0000000E+00[ 0.000E+00, 0.000E+00]  d Energy =-0.1378528E-01 0.138E-01
 d Force = 0.0000000E+00[ 0.000E+00, 0.000E+00]  d Ewald  = 0.4822437E+02-0.482E+02

 Steepest descent step on ions:
 trial-energy change:    0.013785  1 .order    0.014286   -0.015706    0.044278
  (g-gl).g = 0.157E-01      g.g   = 0.157E-01  gl.gl    = 0.000E+00
 g(Force)  = 0.175E-46   g(Stress)= 0.157E-01 ortho     = 0.000E+00
 gamma     =   0.00000
 trial     =   1.00000
 opt step  =   0.27175  (harmonic =   0.26184) maximal distance =0.00000000
 next E    =   -12.042041   (d E  =  -0.00214)

[...]

 d Force = 0.0000000E+00[ 0.000E+00, 0.000E+00]  d Energy = 0.1595055E-01-0.160E-01
 d Force = 0.0000000E+00[ 0.000E+00, 0.000E+00]  d Ewald  =-0.3522710E+02 0.352E+02

[...]

 d Force = 0.0000000E+00[ 0.000E+00, 0.000E+00]  d Energy =-0.2138416E-04 0.214E-04
 d Force = 0.0000000E+00[ 0.000E+00, 0.000E+00]  d Ewald  = 0.1302779E+01-0.130E+01

[...]

 d Force = 0.0000000E+00[ 0.000E+00, 0.000E+00]  d Energy =-0.4711728E-07 0.471E-07
 d Force = 0.0000000E+00[ 0.000E+00, 0.000E+00]  d Ewald  =-0.2239187E-01 0.224E-01

[...]

 d Force = 0.0000000E+00[ 0.000E+00, 0.000E+00]  d Energy = 0.5093170E-10-0.509E-10
 d Force = 0.0000000E+00[ 0.000E+00, 0.000E+00]  d Ewald  =-0.1171583E-01 0.117E-01

[...]

 Broyden mixing:
  rms(total) = 0.10416E-04    rms(broyden)= 0.85268E-05
  rms(prec ) = 0.11748E-04
  weight for this iteration     100.00
  WARNING: grid for Broyden might be to small

[...]

 Broyden mixing:
  rms(total) = 0.76641E-05    rms(broyden)= 0.47921E-05
  rms(prec ) = 0.62229E-05
  weight for this iteration     100.00
  WARNING: grid for Broyden might be to small

[...]

 d Force = 0.0000000E+00[ 0.000E+00, 0.000E+00]  d Energy =-0.3830792E-08 0.383E-08
 d Force = 0.0000000E+00[ 0.000E+00, 0.000E+00]  d Ewald  =-0.2411617E-03 0.241E-03

[...]

 eigenvalue-minimisations  :  4416
 total energy-change (2. order) : 0.1041469E-03  (-0.3220950E-04)
 number of electron      31.9999998 magnetization
 augmentation part        8.2278406 magnetization

 Broyden mixing:
  rms(total) = 0.13781E-02    rms(broyden)= 0.13760E-02
  rms(prec ) = 0.19013E-02
  weight for this iteration     100.00

 eigenvalues of (default mixing * dielectric matrix)
  average eigenvalue GAMMA=   1.5643
  1.5643  1.5643

[...]

--------------------------------------- Iteration     15(   4)  ---------------------------------------

 eigenvalue-minimisations  :  3744
 total energy-change (2. order) :-0.7023391E-06  (-0.3385476E-06)
 number of electron      31.9999998 magnetization
 augmentation part        8.2278406 magnetization

 Free energy of the ion-electron system (eV)
  alpha Z        PSCENC =       306.58043162
  Ewald energy   TEWEN  =     -4254.12912055
  -Hartree energ DENC   =      -774.54792980
  -exchange      EXHF   =         0.00000000
  -V(xc)+E(xc)   XCENC  =       125.72067050
  PAW double counting   =      4654.16759143    -4589.39783389
  entropy T*S    EENTRO =        -0.00465689
  eigenvalues    EBANDS =      -336.86092846
  atomic energy  EATOM  =      4856.42966544
  Solvation  Ediel_sol  =         0.00000000
  free energy    TOTEN  =       -12.04211059 eV

  energy without entropy =      -12.03745370  energy(sigma->0) =      -12.03978214

 average (electrostatic) potential at core
  the test charge radii are     0.9952
  (the norm of the test charge is              1.0000)
       1 -89.3349       2 -89.3349

 E-fermi :  11.3031     XC(G=0): -13.7596     alpha+bet :-16.7599

 Fermi energy:        11.3031167898

[...]

 k-point    70 :       0.3000    0.3000    0.5000
  band No.  band energies     occupation
      1     -41.4545      2.00000
      2     -41.4545      2.00000
      3     -41.3748      2.00000
      4     -41.3748      2.00000
      5     -41.0874      2.00000
      6     -41.0874      2.00000
      7       6.0053      2.00000
      8       6.0053      2.00000
      9       6.8400      2.00000
     10       6.8400      2.00000
     11       7.6143      2.00000
     12       7.6143      2.00000
     13       8.9110      2.00000
     14       8.9110      2.00000
     15      11.2063      1.99382
     16      11.2063      1.99381
     17      16.6815      0.00000
     18      16.6815      0.00000
     19      18.6477      0.00000
     20      18.6477      0.00000
     21      20.8760      0.00000
     22      20.8760      0.00000
     23      28.2276      0.00000
     24      28.2276      0.00000

 soft charge-density along one line, spin component           1
         0         1         2         3         4         5         6         7         8         9
 total charge-density along one line

------------------------ aborting loop because EDIFF is reached ----------------------------------------

[...]

  FORCE on cell =-STRESS in cart. coord.  units (eV):
  Direction    XX          YY          ZZ          XY          YZ          ZX
  Alpha Z   306.58043   306.58043   306.58043
  Ewald   -1379.90401 -1379.90401 -1494.32308     0.00000     0.00000    -0.00000
  Hartree   274.92149   274.92149   224.69678    -0.00000    -0.00000    -0.00000
  E(xc)    -170.83589  -170.83589  -171.07001     0.00000    -0.00000    -0.00000
  Local     188.93334   188.93332   341.39537    -0.00002    -0.00000    -0.00000
  n-local   -58.67684   -61.10239   -61.99284   -13.18341     3.59906     3.34459
  augment   145.55236   145.55236   149.08545     0.00000    -0.00000    -0.00000
  Kinetic   697.66851   691.62125   705.60598   -16.81761     3.62762     1.02728
  Fock        0.00000     0.00000     0.00000     0.00000     0.00000     0.00000
  Total       0.00296     0.00296    -0.02192     0.00000     0.00000    -0.00000
  in kB       0.15128     0.15128    -1.12171     0.00000     0.00000    -0.00000

 VOLUME and BASIS-vectors are now :
  energy-cutoff  :      450.00
  volume of cell :       31.30
      direct lattice vectors                 reciprocal lattice vectors
     2.752972122 -0.000000000 -0.000000000     0.363243780  0.209718894 -0.000000000
    -1.376486061  2.384143793 -0.000000000     0.000000000  0.419437788 -0.000000000
     0.000000000  0.000000000  4.769460044     0.000000000  0.000000000  0.209667340

  length of vectors
     2.752972122  2.752972122  4.769460044     0.419437788  0.419437788  0.209667340

 FORCES acting on ions
    electron-ion (+dipol)            ewald-force                    non-local-force                 convergence-correction
   0.363E-06 -.210E-06 0.977E-13   0.178E-11 -.106E-11 -.685E-13   -.104E-16 -.937E-20 0.000E+00   -.418E-08 0.241E-08 -.933E-13
   -.275E-06 0.159E-06 -.297E-11   -.179E-11 0.106E-11 0.685E-13   0.174E-16 0.937E-20 0.000E+00   0.420E-08 -.242E-08 0.589E-13
   0.879E-07 -.507E-07 -.287E-11   -.631E-14 -.236E-14 -.232E-17   0.694E-17 0.394E-26 0.000E+00   0.157E-10 -.922E-11 -.344E-13

 POSITION                                       TOTAL-FORCE (eV/Angst)
      0.00000      0.00000      0.00000        -0.000000     -0.000000      0.000000
      0.00000      1.58943      2.38473         0.000000      0.000000      0.000000
    total drift:                                0.000000     -0.000000     -0.000000

  FREE ENERGIE OF THE ION-ELECTRON SYSTEM (eV)
  free  energy   TOTEN  =       -12.04211059 eV

  energy  without entropy=      -12.03745370  energy(sigma->0) =      -12.03978214

 d Force = 0.0000000E+00[ 0.000E+00, 0.000E+00]  d Energy = 0.4823209E-04-0.482E-04
 d Force = 0.0000000E+00[ 0.000E+00, 0.000E+00]  d Ewald  = 0.3243166E+00-0.324E+00

 Conjugate gradient step on ions:
 trial-energy change:   -0.000048  1 .order   -0.000056   -0.000085   -0.000028
  (g-gl).g = 0.117E-03      g.g   = 0.994E-04  gl.gl    = 0.157E-01
 g(Force)  = 0.191E-46   g(Stress)= 0.994E-04 ortho     =-0.180E-04
 gamma     =   0.00748
 trial     =   0.85484
 opt step  =   1.26805  (harmonic =   1.26805) maximal distance =0.00000000
 next E    =   -12.042125   (d E  =  -0.00006)

 reached required accuracy - stopping structural energy minimisation
 writing wavefunctions

 total charge

# of ion       s       p       d       tot
    1        0.338   6.078   7.067  13.483
    2        0.338   6.078   7.067  13.483
tot          0.677  12.156  14.134  26.967