 vasp.6.3.2 27Jun22 (build Aug 12 2022 00:53:59) complex

 executed on               tv2STD date 2024.11.30  17:13:50

 INCAR:
   SYSTEM = Co-hcc
   NWRITE = 2    write-flag
   ISTART = 0    job   : 0-new, 1-cont, 2-samecut
   ICHARG = 2    charge: 0-wave, 1-file, 2-atom, >10-const
   INIWAV = 1    electr: 0-lowe 1-rand  2-diag
   ENCUT = 400     energy cutoff in eV
   PREC = Accurate      normal | accurate
   ADDGRID = .FALSE.  (use fine grid)
   NELM = 100     number of ELM steps
   EDIFF = 1E-06    energy stopping-criterion for ELM
   LREAL = .FALSE.      real-space projection (.FALSE., .TRUE., On, Auto)
   ALGO = Normal     Normal, Fast, Very_Fast
   LWAVE = .TRUE.
   LCHARG = .TRUE.
   NSW = 100       max number of geometry steps
   IBRION = 2     ionic relax: 0-MD, 1-quasi-Newton, 2-CG, 3-Damped MD
   EDIFFG = -0.02  force (eV/A) stopping-criterion for geometry steps
   ISIF = 2     (1:force\=y stress\=trace only ions\=y shape\=n volume\=n)
   ISYM = 1     (1-use symmetry, 0-no symmetry)
   ISMEAR = 0     (-1-Fermi, 1-Methfessel/Paxton)
   SIGMA = 0.05   broadening in eV
   LORBIT = 11 magnetic props in OUTCAR should be on
   NPAR = 4
   ISPIN = 2
   MAGMOM = 2*3

 POTCAR:    PAW_PBE Co 02Aug2007
 POTCAR:    PAW_PBE Co 02Aug2007
   VRHFIN =Co: d8 s1

   TITEL  = PAW_PBE Co 02Aug2007
   POMASS =   58.933; ZVAL   =    9.000    mass and valenz
   ENMAX  =  267.968; ENMIN  =  200.976 eV

  PAW_PBE Co 02Aug2007                  :

 POSCAR: Co
  positions in cartesian coordinates
 exchange correlation table for  LEXCH =        8
   RHO(1)=    0.500       N(1)  =     2000
   RHO(2)=  100.500       N(2)  =     4000

 ion  position               nearest neighbor table
   1  0.000  0.000  0.000-   2 2.52   2 2.52   2 2.52   2 2.52   2 2.52   2 2.52
   2  0.333  0.667  0.500-   1 2.52   1 2.52   1 2.52   1 2.52   1 2.52   1 2.52

  LATTYP: Found a hexagonal cell.
 ALAT       =     2.5333320888
 C/A-ratio  =     1.6179593006

  Lattice vectors:

 A1 = (   2.5333320888,   0.0000000000,   0.0000000000)
 A2 = (  -1.2666660444,   2.1939299452,   0.0000000000)
 A3 = (   0.0000000000,   0.0000000000,   4.0988282146)

Analysis of symmetry for initial positions (statically):
 Subroutine PRICEL returns:
 Original cell was already a primitive cell.

 Routine SETGRP: Setting up the symmetry group for a
 hexagonal supercell.

 Subroutine GETGRP returns: Found 24 space group operations
 (whereof 12 operations were pure point group operations)
 out of a pool of 24 trial point group operations.

The static configuration has the point symmetry D_3h.
 The point group associated with its full space group is D_6h.

Analysis of symmetry for dynamics (positions and initial velocities):
 Subroutine PRICEL returns:
 Original cell was already a primitive cell.

[...]

The dynamic configuration has the point symmetry D_3h.
 The point group associated with its full space group is D_6h.

Analysis of structural, dynamic, and magnetic symmetry:
 Subroutine PRICEL returns:
 Original cell was already a primitive cell.

 Routine SETGRP: Setting up the symmetry group for a
 hexagonal supercell.

 Subroutine GETGRP returns: Found 24 space group operations
 (whereof 12 operations were pure point group operations)
 out of a pool of 24 trial point group operations.

The overall configuration has the point symmetry D_3h.
 The point group associated with its full space group is D_6h.

 Subroutine INISYM returns: Found 24 space group operations
 (whereof 12 operations are pure point group operations),
 and found     1 'primitive' translations

                                     Primitive cell

  volume of cell :      22.7811

  direct lattice vectors                    reciprocal lattice vectors
     2.533332089  0.000000000  0.000000000     0.394737036  0.227901534  0.000000000
    -1.266666044  2.193929945  0.000000000     0.000000000  0.455803068  0.000000000
     0.000000000  0.000000000  4.098828215     0.000000000  0.000000000  0.243972167

  length of vectors
     2.533332089  2.533332089  4.098828215     0.455803068  0.455803068  0.243972167

  position of ions in fractional coordinates (direct lattice)
     0.000000000  0.000000000  0.000000000
     0.333333333  0.666666667  0.500000000

  ion indices of the primitive-cell ions
   primitive index   ion index
                 1           1
                 2           2

 KPOINTS: Automatic mesh

Automatic generation of k-mesh.
 Grid dimensions read from file:
 generate k-points for:   10   10    8

 Generating k-lattice:

  Cartesian coordinates                     Fractional coordinates (reciprocal lattice)
     0.039473704  0.022790153  0.000000000     0.100000000  0.000000000  0.000000000
     0.000000000  0.045580307  0.000000000     0.000000000  0.100000000  0.000000000
     0.000000000  0.000000000  0.030496521     0.000000000  0.000000000  0.125000000

  Length of vectors
     0.045580307  0.045580307  0.030496521

  Shift w.r.t. Gamma in fractional coordinates (k-lattice)
     0.000000000  0.000000000  0.000000000

 Subroutine IBZKPT returns following result:

 Found     70 irreducible k-points:

 Following reciprocal coordinates:
            Coordinates               Weight
  0.000000  0.000000  0.000000      1.000000
  0.100000  0.000000  0.000000      6.000000
  0.200000  0.000000  0.000000      6.000000
  0.300000  0.000000  0.000000      6.000000
  0.400000  0.000000  0.000000      6.000000
  0.500000  0.000000  0.000000      3.000000
  0.100000  0.100000  0.000000      6.000000
  0.200000  0.100000  0.000000     12.000000
  0.300000  0.100000  0.000000     12.000000
  0.400000  0.100000  0.000000     12.000000
  0.200000  0.200000  0.000000      6.000000
  0.300000  0.200000  0.000000     12.000000
  0.400000  0.200000  0.000000      6.000000
  0.300000  0.300000  0.000000      6.000000
  0.000000  0.000000  0.125000      2.000000
  0.100000  0.000000  0.125000     12.000000
  0.200000  0.000000  0.125000     12.000000
  0.300000  0.000000  0.125000     12.000000
  0.400000  0.000000  0.125000     12.000000
  0.500000  0.000000  0.125000      6.000000
  0.100000  0.100000  0.125000     12.000000
  0.200000  0.100000  0.125000     24.000000
  0.300000  0.100000  0.125000     24.000000
  0.400000  0.100000  0.125000     24.000000
  0.200000  0.200000  0.125000     12.000000
  0.300000  0.200000  0.125000     24.000000
  0.400000  0.200000  0.125000     12.000000
  0.300000  0.300000  0.125000     12.000000
  0.000000  0.000000  0.250000      2.000000
  0.100000  0.000000  0.250000     12.000000
  0.200000  0.000000  0.250000     12.000000
  0.300000  0.000000  0.250000     12.000000
  0.400000  0.000000  0.250000     12.000000
  0.500000  0.000000  0.250000      6.000000
  0.100000  0.100000  0.250000     12.000000
  0.200000  0.100000  0.250000     24.000000
  0.300000  0.100000  0.250000     24.000000
  0.400000  0.100000  0.250000     24.000000
  0.200000  0.200000  0.250000     12.000000
  0.300000  0.200000  0.250000     24.000000
  0.400000  0.200000  0.250000     12.000000
  0.300000  0.300000  0.250000     12.000000
  0.000000  0.000000  0.375000      2.000000
  0.100000  0.000000  0.375000     12.000000
  0.200000  0.000000  0.375000     12.000000
  0.300000  0.000000  0.375000     12.000000
  0.400000  0.000000  0.375000     12.000000
  0.500000  0.000000  0.375000      6.000000
  0.100000  0.100000  0.375000     12.000000
  0.200000  0.100000  0.375000     24.000000
  0.300000  0.100000  0.375000     24.000000
  0.400000  0.100000  0.375000     24.000000
  0.200000  0.200000  0.375000     12.000000
  0.300000  0.200000  0.375000     24.000000
  0.400000  0.200000  0.375000     12.000000
  0.300000  0.300000  0.375000     12.000000
  0.000000  0.000000  0.500000      1.000000
  0.100000  0.000000  0.500000      6.000000
  0.200000  0.000000  0.500000      6.000000
  0.300000  0.000000  0.500000      6.000000
  0.400000  0.000000  0.500000      6.000000
  0.500000  0.000000  0.500000      3.000000
  0.100000  0.100000  0.500000      6.000000
  0.200000  0.100000  0.500000     12.000000
  0.300000  0.100000  0.500000     12.000000
  0.400000  0.100000  0.500000     12.000000
  0.200000  0.200000  0.500000      6.000000
  0.300000  0.200000  0.500000     12.000000
  0.400000  0.200000  0.500000      6.000000
  0.300000  0.300000  0.500000      6.000000

 Following cartesian coordinates:
            Coordinates               Weight
  0.000000  0.000000  0.000000      1.000000
  0.039474  0.022790  0.000000      6.000000
  0.078947  0.045580  0.000000      6.000000
  0.118421  0.068370  0.000000      6.000000
  0.157895  0.091161  0.000000      6.000000
  0.197369  0.113951  0.000000      3.000000
  0.039474  0.068370  0.000000      6.000000
  0.078947  0.091161  0.000000     12.000000
  0.118421  0.113951  0.000000     12.000000
  0.157895  0.136741  0.000000     12.000000
  0.078947  0.136741  0.000000      6.000000
  0.118421  0.159531  0.000000     12.000000
  0.157895  0.182321  0.000000      6.000000
  0.118421  0.205111  0.000000      6.000000
  0.000000  0.000000  0.030497      2.000000
  0.039474  0.022790  0.030497     12.000000
  0.078947  0.045580  0.030497     12.000000
  0.118421  0.068370  0.030497     12.000000
  0.157895  0.091161  0.030497     12.000000
  0.197369  0.113951  0.030497      6.000000
  0.039474  0.068370  0.030497     12.000000
  0.078947  0.091161  0.030497     24.000000
  0.118421  0.113951  0.030497     24.000000
  0.157895  0.136741  0.030497     24.000000
  0.078947  0.136741  0.030497     12.000000
  0.118421  0.159531  0.030497     24.000000
  0.157895  0.182321  0.030497     12.000000
  0.118421  0.205111  0.030497     12.000000
  0.000000  0.000000  0.060993      2.000000
  0.039474  0.022790  0.060993     12.000000
  0.078947  0.045580  0.060993     12.000000
  0.118421  0.068370  0.060993     12.000000
  0.157895  0.091161  0.060993     12.000000
  0.197369  0.113951  0.060993      6.000000
  0.039474  0.068370  0.060993     12.000000
  0.078947  0.091161  0.060993     24.000000
  0.118421  0.113951  0.060993     24.000000
  0.157895  0.136741  0.060993     24.000000
  0.078947  0.136741  0.060993     12.000000
  0.118421  0.159531  0.060993     24.000000
  0.157895  0.182321  0.060993     12.000000
  0.118421  0.205111  0.060993     12.000000
  0.000000  0.000000  0.091490      2.000000
  0.039474  0.022790  0.091490     12.000000
  0.078947  0.045580  0.091490     12.000000
  0.118421  0.068370  0.091490     12.000000
  0.157895  0.091161  0.091490     12.000000
  0.197369  0.113951  0.091490      6.000000
  0.039474  0.068370  0.091490     12.000000
  0.078947  0.091161  0.091490     24.000000
  0.118421  0.113951  0.091490     24.000000
  0.157895  0.136741  0.091490     24.000000
  0.078947  0.136741  0.091490     12.000000
  0.118421  0.159531  0.091490     24.000000
  0.157895  0.182321  0.091490     12.000000
  0.118421  0.205111  0.091490     12.000000
  0.000000  0.000000  0.121986      1.000000
  0.039474  0.022790  0.121986      6.000000
  0.078947  0.045580  0.121986      6.000000
  0.118421  0.068370  0.121986      6.000000
  0.157895  0.091161  0.121986      6.000000
[...]
   0.20000000  0.10000000  0.12500000       0.030
   0.30000000  0.10000000  0.12500000       0.030
   0.40000000  0.10000000  0.12500000       0.030
   0.20000000  0.20000000  0.12500000       0.015
   0.30000000  0.20000000  0.12500000       0.030
   0.40000000  0.20000000  0.12500000       0.015
   0.30000000  0.30000000  0.12500000       0.015
   0.00000000  0.00000000  0.25000000       0.003
   0.10000000  0.00000000  0.25000000       0.015
   0.20000000  0.00000000  0.25000000       0.015
   0.30000000  0.00000000  0.25000000       0.015
   0.40000000  0.00000000  0.25000000       0.015
   0.50000000  0.00000000  0.25000000       0.007
   0.10000000  0.10000000  0.25000000       0.015
   0.20000000  0.10000000  0.25000000       0.030
   0.30000000  0.10000000  0.25000000       0.030
   0.40000000  0.10000000  0.25000000       0.030
   0.20000000  0.20000000  0.25000000       0.015
   0.30000000  0.20000000  0.25000000       0.030
   0.40000000  0.20000000  0.25000000       0.015
   0.30000000  0.30000000  0.25000000       0.015
   0.00000000  0.00000000  0.37500000       0.003
   0.10000000  0.00000000  0.37500000       0.015
   0.20000000  0.00000000  0.37500000       0.015
   0.30000000  0.00000000  0.37500000       0.015
   0.40000000  0.00000000  0.37500000       0.015
   0.50000000  0.00000000  0.37500000       0.007
   0.10000000  0.10000000  0.37500000       0.015
   0.20000000  0.10000000  0.37500000       0.030
   0.30000000  0.10000000  0.37500000       0.030
   0.40000000  0.10000000  0.37500000       0.030
   0.20000000  0.20000000  0.37500000       0.015
   0.30000000  0.20000000  0.37500000       0.030
   0.40000000  0.20000000  0.37500000       0.015
   0.30000000  0.30000000  0.37500000       0.015
   0.00000000  0.00000000  0.50000000       0.001
   0.10000000  0.00000000  0.50000000       0.007
   0.20000000  0.00000000  0.50000000       0.007
   0.30000000  0.00000000  0.50000000       0.007
   0.40000000  0.00000000  0.50000000       0.007
   0.50000000  0.00000000  0.50000000       0.004
   0.10000000  0.10000000  0.50000000       0.007
   0.20000000  0.10000000  0.50000000       0.015
   0.30000000  0.10000000  0.50000000       0.015
   0.40000000  0.10000000  0.50000000       0.015
   0.20000000  0.20000000  0.50000000       0.007
   0.30000000  0.20000000  0.50000000       0.015
   0.40000000  0.20000000  0.50000000       0.007
   0.30000000  0.30000000  0.50000000       0.007

 position of ions in fractional coordinates (direct lattice)
   0.00000000  0.00000000  0.00000000
   0.33333333  0.66666667  0.50000000

 position of ions in cartesian coordinates  (Angst):
   0.00000000  0.00000000  0.00000000
   0.00000000  1.46261996  2.04941411

 k-point   1 :   0.0000 0.0000 0.0000  plane waves:     391
 k-point   2 :   0.1000 0.0000 0.0000  plane waves:     403
 k-point   3 :   0.2000 0.0000 0.0000  plane waves:     411
 k-point   4 :   0.3000 0.0000 0.0000  plane waves:     419
 k-point   5 :   0.4000 0.0000 0.0000  plane waves:     421
 k-point   6 :   0.5000 0.0000 0.0000  plane waves:     428
 k-point   7 :   0.1000 0.1000 0.0000  plane waves:     410
 k-point   8 :   0.2000 0.1000 0.0000  plane waves:     410
 k-point   9 :   0.3000 0.1000 0.0000  plane waves:     414
 k-point  10 :   0.4000 0.1000 0.0000  plane waves:     420
 k-point  11 :   0.2000 0.2000 0.0000  plane waves:     410
 k-point  12 :   0.3000 0.2000 0.0000  plane waves:     416
 k-point  13 :   0.4000 0.2000 0.0000  plane waves:     418
 k-point  14 :   0.3000 0.3000 0.0000  plane waves:     424
 k-point  15 :   0.0000 0.0000 0.1250  plane waves:     391
 k-point  16 :   0.1000 0.0000 0.1250  plane waves:     404
 k-point  17 :   0.2000 0.0000 0.1250  plane waves:     408
 k-point  18 :   0.3000 0.0000 0.1250  plane waves:     415
 k-point  19 :   0.4000 0.0000 0.1250  plane waves:     422
 k-point  20 :   0.5000 0.0000 0.1250  plane waves:     426
 k-point  21 :   0.1000 0.1000 0.1250  plane waves:     407
 k-point  22 :   0.2000 0.1000 0.1250  plane waves:     415
 k-point  23 :   0.3000 0.1000 0.1250  plane waves:     412
 k-point  24 :   0.4000 0.1000 0.1250  plane waves:     417
 k-point  25 :   0.2000 0.2000 0.1250  plane waves:     414
 k-point  26 :   0.3000 0.2000 0.1250  plane waves:     418
 k-point  27 :   0.4000 0.2000 0.1250  plane waves:     419
 k-point  28 :   0.3000 0.3000 0.1250  plane waves:     414
 k-point  29 :   0.0000 0.0000 0.2500  plane waves:     397
 k-point  30 :   0.1000 0.0000 0.2500  plane waves:     410
 k-point  31 :   0.2000 0.0000 0.2500  plane waves:     412
 k-point  32 :   0.3000 0.0000 0.2500  plane waves:     416
 k-point  33 :   0.4000 0.0000 0.2500  plane waves:     417
 k-point  34 :   0.5000 0.0000 0.2500  plane waves:     420
 k-point  35 :   0.1000 0.1000 0.2500  plane waves:     407
 k-point  36 :   0.2000 0.1000 0.2500  plane waves:     412
 k-point  37 :   0.3000 0.1000 0.2500  plane waves:     415
 k-point  38 :   0.4000 0.1000 0.2500  plane waves:     416
 k-point  39 :   0.2000 0.2000 0.2500  plane waves:     411
 k-point  40 :   0.3000 0.2000 0.2500  plane waves:     413
 k-point  41 :   0.4000 0.2000 0.2500  plane waves:     418
 k-point  42 :   0.3000 0.3000 0.2500  plane waves:     416
 k-point  43 :   0.0000 0.0000 0.3750  plane waves:     410
 k-point  44 :   0.1000 0.0000 0.3750  plane waves:     410
 k-point  45 :   0.2000 0.0000 0.3750  plane waves:     417
 k-point  46 :   0.3000 0.0000 0.3750  plane waves:     413
 k-point  47 :   0.4000 0.0000 0.3750  plane waves:     414
 k-point  48 :   0.5000 0.0000 0.3750  plane waves:     416
 k-point  49 :   0.1000 0.1000 0.3750  plane waves:     411
 k-point  50 :   0.2000 0.1000 0.3750  plane waves:     413
 k-point  51 :   0.3000 0.1000 0.3750  plane waves:     415
 k-point  52 :   0.4000 0.1000 0.3750  plane waves:     414
 k-point  53 :   0.2000 0.2000 0.3750  plane waves:     415
 k-point  54 :   0.3000 0.2000 0.3750  plane waves:     412
 k-point  55 :   0.4000 0.2000 0.3750  plane waves:     412
 k-point  56 :   0.3000 0.3000 0.3750  plane waves:     417
 k-point  57 :   0.0000 0.0000 0.5000  plane waves:     398
 k-point  58 :   0.1000 0.0000 0.5000  plane waves:     402
 k-point  59 :   0.2000 0.0000 0.5000  plane waves:     416
 k-point  60 :   0.3000 0.0000 0.5000  plane waves:     420
 k-point  61 :   0.4000 0.0000 0.5000  plane waves:     412
 k-point  62 :   0.5000 0.0000 0.5000  plane waves:     416
 k-point  63 :   0.1000 0.1000 0.5000  plane waves:     412
 k-point  64 :   0.2000 0.1000 0.5000  plane waves:     414
 k-point  65 :   0.3000 0.1000 0.5000  plane waves:     414
 k-point  66 :   0.4000 0.1000 0.5000  plane waves:     410
 k-point  67 :   0.2000 0.2000 0.5000  plane waves:     422
 k-point  68 :   0.3000 0.2000 0.5000  plane waves:     416
 k-point  69 :   0.4000 0.2000 0.5000  plane waves:     412
 k-point  70 :   0.3000 0.3000 0.5000  plane waves:     420

 maximum and minimum number of plane-waves per node :        79       61

 maximum number of plane-waves:       428
 maximum index in each direction:
   IXMAX=    4   IYMAX=    4   IZMAX=    6
   IXMIN=   -4   IYMIN=   -4   IZMIN=   -7

 parallel 3D FFT for wavefunctions:
    minimum data exchange during FFTs selected (reduces bandwidth)
 parallel 3D FFT for charge:
    minimum data exchange during FFTs selected (reduces bandwidth)

 Broyden mixing: mesh for mixing (old mesh)
   NGX =  9   NGY =  9   NGZ = 13
  (NGX  = 36   NGY  = 36   NGZ  = 56)
  gives a total of   1053 points

 initial charge density was supplied:
 charge density of overlapping atoms calculated
 number of electron      18.0000000 magnetization       6.0000000
 keeping initial charge density in first step

 Maximum index for augmentation-charges         1006 (set IRDMAX)

 First call to EWALD:  gamma=   0.625
 Maximum number of real-space cells 3x 3x 2
 Maximum number of reciprocal cells 3x 3x 4

--------------------------------------- Iteration      1(   1)  ---------------------------------------

 eigenvalue-minimisations  :  4608
 total energy-change (2. order) : 0.6980347E+02  (-0.7100280E+03)
 number of electron      18.0000000 magnetization       6.0000000
 augmentation part       18.0000000 magnetization       6.0000000

 Free energy of the ion-electron system (eV)
  alpha Z        PSCENC =        74.37340602
  Ewald energy   TEWEN  =     -1497.18334785
  -Hartree energ DENC   =      -310.41363380
  -exchange      EXHF   =         0.00000000
  -V(xc)+E(xc)   XCENC  =        35.32057684
  PAW double counting   =      1439.98163886    -1545.88690193
  entropy T*S    EENTRO =        -0.00268708
  eigenvalues    EBANDS =       246.89895448
  atomic energy  EATOM  =      1626.71546820
  Solvation  Ediel_sol  =         0.00000000
  free energy    TOTEN  =        69.80347374 eV

  energy without entropy =       69.80616082  energy(sigma->0) =       69.80481728

[...]

 eigenvalue-minimisations  :  4504
 total energy-change (2. order) :-0.8347329E+02  (-0.7688620E+02)
 number of electron      18.0000000 magnetization       6.0000000
 augmentation part       18.0000000 magnetization       6.0000000

[...]

 eigenvalue-minimisations  :  5672
 total energy-change (2. order) :-0.1563518E-03  (-0.1563502E-03)
 number of electron      18.0000033 magnetization       3.5803509
 augmentation part        9.1392210 magnetization       2.7894117

 Broyden mixing:
  rms(total) = 0.15333E+01    rms(broyden)= 0.15333E+01
  rms(prec ) = 0.26618E+01
  weight for this iteration     100.00

[...]

 eigenvalues of (default mixing * dielectric matrix)
  average eigenvalue GAMMA=   0.8143
  0.8143

[...]

 Broyden mixing:
  rms(total) = 0.16133E-02    rms(broyden)= 0.16133E-02
  rms(prec ) = 0.24326E-02
  weight for this iteration     100.00

 eigenvalues of (default mixing * dielectric matrix)
  average eigenvalue GAMMA=   1.2153
  2.2206  2.2206  1.0479  1.0479  0.6911  0.6394  0.6394

[...]

--------------------------------------- Iteration      1(  13)  ---------------------------------------

 eigenvalue-minimisations  :  3376
 total energy-change (2. order) : 0.8395032E-06  (-0.1052807E-06)
 number of electron      18.0000037 magnetization       3.3887699
 augmentation part       10.2676210 magnetization       3.0393488

 Free energy of the ion-electron system (eV)
  alpha Z        PSCENC =        74.37340602
  Ewald energy   TEWEN  =     -1497.18334785
  -Hartree energ DENC   =      -274.91178494
  -exchange      EXHF   =         0.00000000
  -V(xc)+E(xc)   XCENC  =        32.64733863
  PAW double counting   =      1756.45991459    -1862.16468712
  entropy T*S    EENTRO =        -0.00272237
  eigenvalues    EBANDS =       130.02167696
  atomic energy  EATOM  =      1626.71546820
  Solvation  Ediel_sol  =         0.00000000
  free energy    TOTEN  =       -14.04473787 eV

  energy without entropy =      -14.04201550  energy(sigma->0) =      -14.04337668

 average (electrostatic) potential at core
  the test charge radii are     1.0452
  (the norm of the test charge is              1.0000)
       1 -78.9489       2 -78.9489

 E-fermi :   9.5497     XC(G=0): -13.1226     alpha+bet :-16.8863

 Fermi energy:         9.5496644166

 spin component 1

 k-point     1 :       0.0000    0.0000    0.0000
  band No.  band energies     occupation
      1       0.9534      1.00000
      2       4.6500      1.00000
      3       6.9973      1.00000
      4       7.0180      1.00000
      5       7.0180      1.00000
      6       7.3034      1.00000
      7       7.3034      1.00000
      8       7.6261      1.00000
      9       7.6261      1.00000
     10       8.6411      1.00000
     11       8.6411      1.00000
     12       9.5313      0.69866
     13      15.4826      0.00000
     14      31.1532      0.00000
     15      33.2357      0.00000
     16      33.2357      0.00000

[...]

 k-point    70 :       0.3000    0.3000    0.5000
  band No.  band energies     occupation
      1       5.6665      1.00000
      2       5.6665      1.00000
      3       6.1777      1.00000
      4       6.1777      1.00000
      5       6.7124      1.00000
      6       6.7124      1.00000
      7       7.6685      1.00000
      8       7.6685      1.00000
      9       8.7196      1.00000
     10       8.7196      1.00000
     11      14.0363      0.00000
     12      14.0363      0.00000
     13      17.3681      0.00000
     14      17.3681      0.00000
     15      19.0252      0.00000
     16      19.0252      0.00000
 Fermi energy:         9.5496644166

 spin component 2

[...]

 k-point    70 :       0.3000    0.3000    0.5000
  band No.  band energies     occupation
      1       6.9009      1.00000
      2       6.9009      1.00000
      3       7.5386      1.00000
      4       7.5386      1.00000
      5       7.9949      1.00000
      6       7.9949      1.00000
      7       9.4593      0.99472
      8       9.4593      0.99472
      9      10.6601      0.00000
     10      10.6601      0.00000
     11      14.7847      0.00000
     12      14.7847      0.00000
     13      18.0323      0.00000
     14      18.0323      0.00000
     15      19.6698      0.00000
     16      19.6698      0.00000

 soft charge-density along one line, spin component           1
         0         1         2         3         4         5         6         7         8         9
 total charge-density along one line

 soft charge-density along one line, spin component           2
         0         1         2         3         4         5         6         7         8         9
 total charge-density along one line

------------------------ aborting loop because EDIFF is reached ----------------------------------------

 total charge

# of ion       s       p       d       tot
    1        0.471   0.483   7.223   8.178
    2        0.471   0.483   7.223   8.178
tot          0.942   0.967  14.447  16.356

 magnetization (x)

[...]

  FORCE on cell =-STRESS in cart. coord.  units (eV):
  Direction    XX          YY          ZZ          XY          YZ          ZX
  Alpha Z    74.37341    74.37341    74.37341
  Ewald    -501.31310  -501.31310  -494.55820     0.00000    -0.00000     0.00000
  Hartree    90.57952    90.57952    93.75459    -0.00000    -0.00000    -0.00000
  E(xc)     -92.22723   -92.22723   -92.23015    -0.00000    -0.00000    -0.00000
  Local     -24.06062   -24.06068   -33.71058    -0.00005    -0.00000    -0.00000
  n-local   -11.22831   -10.84028   -11.02384    -5.99986     1.71137     1.67021
  augment   311.59260   311.59266   311.45174     0.00005     0.00000     0.00000
  Kinetic   152.12083   149.42285   150.61262     4.23892     0.21562     0.84225
  Fock        0.00000     0.00000     0.00000     0.00000     0.00000     0.00000
  Total      -1.31788    -1.31788    -1.33040     0.00000    -0.00000     0.00000
  in kB     -92.68538   -92.68538   -93.56627     0.00000    -0.00000     0.00000

 VOLUME and BASIS-vectors are now :
  energy-cutoff  :      400.00
  volume of cell :       22.78
      direct lattice vectors                 reciprocal lattice vectors
     2.533332089  0.000000000  0.000000000     0.394737036  0.227901534  0.000000000
    -1.266666044  2.193929945  0.000000000     0.000000000  0.455803068  0.000000000
     0.000000000  0.000000000  4.098828215     0.000000000  0.000000000  0.243972167

  length of vectors
     2.533332089  2.533332089  4.098828215     0.455803068  0.455803068  0.243972167

 FORCES acting on ions
    electron-ion (+dipol)            ewald-force                    non-local-force                 convergence-correction
   0.677E-07 -.391E-07 0.124E-13   0.107E-11 -.526E-12 -.218E-13   -.694E-17 0.694E-17 0.000E+00   0.186E-08 -.108E-08 -.284E-13
   -.677E-07 0.391E-07 -.115E-11   -.108E-11 0.524E-12 0.218E-13   0.121E-16 -.694E-17 0.000E+00   -.186E-08 0.108E-08 -.847E-13
   -.218E-10 0.126E-10 -.114E-11   -.197E-14 -.209E-14 0.000E+00   0.520E-17 0.000E+00 0.000E+00   0.392E-13 -.247E-13 -.113E-12

 POSITION                                       TOTAL-FORCE (eV/Angst)
      0.00000      0.00000      0.00000         0.000000      0.000000      0.000000
      0.00000      1.46262      2.04941         0.000000      0.000000      0.000000
    total drift:                               -0.000000      0.000000     -0.000000

  FREE ENERGIE OF THE ION-ELECTRON SYSTEM (eV)
  free  energy   TOTEN  =       -14.04473787 eV

  energy  without entropy=      -14.04201550  energy(sigma->0) =      -14.04337668

 reached required accuracy - stopping structural energy minimisation
 writing wavefunctions

 total charge

[...]

 magnetization (x)

# of ion       s       p       d       tot
    1       -0.013  -0.051   1.786   1.722
    2       -0.013  -0.051   1.786   1.722
tot         -0.025  -0.103   3.572   3.444