 vasp.6.3.2 27Jun22 (build Aug 12 2022 00:53:59) complex

 executed on               tv2STD date 2024.11.30  15:33:58

 INCAR:
   SYSTEM = Co-fcc
   NWRITE = 2    write-flag
   ISTART = 0    job   : 0-new, 1-cont, 2-samecut
   ICHARG = 2    charge: 0-wave, 1-file, 2-atom, >10-const
   INIWAV = 1    electr: 0-lowe 1-rand  2-diag
   ENCUT = 400.0     energy cutoff in eV
   PREC = Accurate      normal | accurate
   ADDGRID = .FALSE.  (use fine grid)
   NELM = 100     number of ELM steps
   EDIFF = 1E-06    energy stopping-criterion for ELM
   LREAL = .FALSE.      real-space projection (.FALSE., .TRUE., On, Auto)
   ALGO = Normal     Normal, Fast, Very_Fast
   LWAVE = .TRUE.
   LCHARG = .TRUE.
   NSW = 100       max number of geometry steps
   IBRION = 2     ionic relax: 0-MD, 1-quasi-Newton, 2-CG, 3-Damped MD
   EDIFFG = -0.02  force (eV/A) stopping-criterion for geometry steps
   ISIF = 3     (1:force\=y stress\=trace only ions\=y shape\=n volume\=n)
   ISYM = 1     (1-use symmetry, 0-no symmetry)
   ISMEAR = 0     (-1-Fermi, 1-Methfessel/Paxton)
   SIGMA = 0.05   broadening in eV
   LORBIT = 11
   NPAR = 4
   ISPIN = 2
   MAGMOM = 1*3

 POTCAR:    PAW_PBE Co 02Aug2007
 POTCAR:    PAW_PBE Co 02Aug2007
   VRHFIN =Co: d8 s1

   TITEL  = PAW_PBE Co 02Aug2007
   POMASS =   58.933; ZVAL   =    9.000    mass and valenz
   ENMAX  =  267.968; ENMIN  =  200.976 eV

  PAW_PBE Co 02Aug2007                  :

 POSCAR: Co
  positions in cartesian coordinates
 exchange correlation table for  LEXCH =        8
   RHO(1)=    0.500       N(1)  =     2000
   RHO(2)=  100.500       N(2)  =     4000

 ion  position               nearest neighbor table
   1  0.000  0.000  0.000-

  LATTYP: Found a face centered cubic cell.
 ALAT       =     3.5100000000

  Lattice vectors:

 A1 = (   0.0000000000,   1.7550000000,   1.7550000000)
 A2 = (   1.7550000000,   0.0000000000,   1.7550000000)
 A3 = (   1.7550000000,   1.7550000000,   0.0000000000)

Analysis of symmetry for initial positions (statically):
 Subroutine PRICEL returns:
 Original cell was already a primitive cell.

 Routine SETGRP: Setting up the symmetry group for a
 face centered cubic supercell.

 Subroutine GETGRP returns: Found 48 space group operations
 (whereof 48 operations were pure point group operations)
 out of a pool of 48 trial point group operations.

The static configuration has the point symmetry O_h .

Analysis of symmetry for dynamics (positions and initial velocities):
 Subroutine PRICEL returns:
 Original cell was already a primitive cell.

[...]

The dynamic configuration has the point symmetry O_h .

Analysis of structural, dynamic, and magnetic symmetry:
 Subroutine PRICEL returns:
 Original cell was already a primitive cell.

 Routine SETGRP: Setting up the symmetry group for a
 face centered cubic supercell.

 Subroutine GETGRP returns: Found 48 space group operations
 (whereof 48 operations were pure point group operations)
 out of a pool of 48 trial point group operations.

The overall configuration has the point symmetry O_h .

 Subroutine INISYM returns: Found 48 space group operations
 (whereof 48 operations are pure point group operations),
 and found     1 'primitive' translations

                                     Primitive cell

  volume of cell :      10.8109

  direct lattice vectors                    reciprocal lattice vectors
     0.000000000  1.755000000  1.755000000    -0.284900285  0.284900285  0.284900285
     1.755000000  0.000000000  1.755000000     0.284900285 -0.284900285  0.284900285
     1.755000000  1.755000000  0.000000000     0.284900285  0.284900285 -0.284900285

  length of vectors
     2.481944802  2.481944802  2.481944802     0.493461769  0.493461769  0.493461769

  position of ions in fractional coordinates (direct lattice)
     0.000000000  0.000000000  0.000000000

  ion indices of the primitive-cell ions
   primitive index   ion index
                 1           1

 KPOINTS: Automatic mesh

Automatic generation of k-mesh.
 Grid dimensions read from file:
 generate k-points for:    8    8    8

 Generating k-lattice:

  Cartesian coordinates                     Fractional coordinates (reciprocal lattice)
    -0.035612536  0.035612536  0.035612536     0.125000000  0.000000000  0.000000000
     0.035612536 -0.035612536  0.035612536     0.000000000  0.125000000  0.000000000
     0.035612536  0.035612536 -0.035612536     0.000000000  0.000000000  0.125000000

  Length of vectors
     0.061682721  0.061682721  0.061682721

  Shift w.r.t. Gamma in fractional coordinates (k-lattice)
     0.500000000  0.500000000  0.500000000

 Subroutine IBZKPT returns following result:

 Found     60 irreducible k-points:

 Following reciprocal coordinates:
            Coordinates               Weight
  0.062500  0.062500  0.062500      8.000000
  0.187500  0.062500  0.062500     24.000000
  0.312500  0.062500  0.062500     24.000000
  0.437500  0.062500  0.062500     24.000000
 -0.437500  0.062500  0.062500     24.000000
 -0.312500  0.062500  0.062500     24.000000
 -0.187500  0.062500  0.062500     24.000000
 -0.062500  0.062500  0.062500     24.000000
  0.187500  0.187500  0.062500     24.000000
  0.312500  0.187500  0.062500     48.000000
  0.437500  0.187500  0.062500     48.000000
 -0.437500  0.187500  0.062500     48.000000
 -0.312500  0.187500  0.062500     48.000000
 -0.187500  0.187500  0.062500     48.000000
 -0.062500  0.187500  0.062500     48.000000
  0.312500  0.312500  0.062500     24.000000
  0.437500  0.312500  0.062500     48.000000
 -0.437500  0.312500  0.062500     48.000000
 -0.312500  0.312500  0.062500     48.000000
 -0.187500  0.312500  0.062500     48.000000
 -0.062500  0.312500  0.062500     48.000000
  0.437500  0.437500  0.062500     24.000000
 -0.437500  0.437500  0.062500     48.000000
 -0.312500  0.437500  0.062500     48.000000
 -0.187500  0.437500  0.062500     48.000000
 -0.062500  0.437500  0.062500     48.000000
 -0.437500 -0.437500  0.062500     24.000000
 -0.312500 -0.437500  0.062500     48.000000
 -0.187500 -0.437500  0.062500     48.000000
 -0.312500 -0.312500  0.062500     24.000000
 -0.187500 -0.312500  0.062500     48.000000
 -0.187500 -0.187500  0.062500     24.000000
  0.187500  0.187500  0.187500      8.000000
  0.312500  0.187500  0.187500     24.000000
  0.437500  0.187500  0.187500     24.000000
 -0.437500  0.187500  0.187500     24.000000
 -0.312500  0.187500  0.187500     24.000000
 -0.187500  0.187500  0.187500     24.000000
  0.312500  0.312500  0.187500     24.000000
  0.437500  0.312500  0.187500     48.000000
 -0.437500  0.312500  0.187500     48.000000
 -0.312500  0.312500  0.187500     48.000000
 -0.187500  0.312500  0.187500     48.000000
  0.437500  0.437500  0.187500     24.000000
 -0.437500  0.437500  0.187500     48.000000
 -0.312500  0.437500  0.187500     48.000000
 -0.187500  0.437500  0.187500     48.000000
 -0.437500 -0.437500  0.187500     24.000000
 -0.312500 -0.437500  0.187500     48.000000
 -0.312500 -0.312500  0.187500     24.000000
  0.312500  0.312500  0.312500      8.000000
  0.437500  0.312500  0.312500     24.000000
 -0.437500  0.312500  0.312500     24.000000
 -0.312500  0.312500  0.312500     24.000000
  0.437500  0.437500  0.312500     24.000000
 -0.437500  0.437500  0.312500     48.000000
 -0.312500  0.437500  0.312500     48.000000
 -0.437500 -0.437500  0.312500     24.000000
  0.437500  0.437500  0.437500      8.000000
 -0.437500  0.437500  0.437500     24.000000

 Following cartesian coordinates:
            Coordinates               Weight
  0.017806  0.017806  0.017806      8.000000
 -0.017806  0.053419  0.053419     24.000000
 -0.053419  0.089031  0.089031     24.000000
 -0.089031  0.124644  0.124644     24.000000
  0.160256 -0.124644 -0.124644     24.000000
  0.124644 -0.089031 -0.089031     24.000000
  0.089031 -0.053419 -0.053419     24.000000
  0.053419 -0.017806 -0.017806     24.000000
  0.017806  0.017806  0.089031     24.000000
 -0.017806  0.053419  0.124644     48.000000
 -0.053419  0.089031  0.160256     48.000000
  0.195869 -0.160256 -0.089031     48.000000
  0.160256 -0.124644 -0.053419     48.000000
  0.124644 -0.089031 -0.017806     48.000000
  0.089031 -0.053419  0.017806     48.000000
  0.017806  0.017806  0.160256     24.000000
 -0.017806  0.053419  0.195869     48.000000
  0.231481 -0.195869 -0.053419     48.000000
  0.195869 -0.160256 -0.017806     48.000000
  0.160256 -0.124644  0.017806     48.000000
  0.124644 -0.089031  0.053419     48.000000
  0.017806  0.017806  0.231481     24.000000
  0.267094 -0.231481 -0.017806     48.000000
  0.231481 -0.195869  0.017806     48.000000
  0.195869 -0.160256  0.053419     48.000000
  0.160256 -0.124644  0.089031     48.000000
  0.017806  0.017806 -0.267094     24.000000
 -0.017806  0.053419 -0.231481     48.000000
 -0.053419  0.089031 -0.195869     48.000000
  0.017806  0.017806 -0.195869     24.000000
 -0.017806  0.053419 -0.160256     48.000000
  0.017806  0.017806 -0.124644     24.000000
  0.053419  0.053419  0.053419      8.000000
  0.017806  0.089031  0.089031     24.000000
 -0.017806  0.124644  0.124644     24.000000
  0.231481 -0.124644 -0.124644     24.000000
  0.195869 -0.089031 -0.089031     24.000000
  0.160256 -0.053419 -0.053419     24.000000
  0.053419  0.053419  0.124644     24.000000
  0.017806  0.089031  0.160256     48.000000
  0.267094 -0.160256 -0.089031     48.000000
  0.231481 -0.124644 -0.053419     48.000000
  0.195869 -0.089031 -0.017806     48.000000
  0.053419  0.053419  0.195869     24.000000
  0.302707 -0.195869 -0.053419     48.000000
  0.267094 -0.160256 -0.017806     48.000000
  0.231481 -0.124644  0.017806     48.000000
  0.053419  0.053419 -0.302707     24.000000
  0.017806  0.089031 -0.267094     48.000000
  0.053419  0.053419 -0.231481     24.000000
  0.089031  0.089031  0.089031      8.000000
  0.053419  0.124644  0.124644     24.000000
  0.302707 -0.124644 -0.124644     24.000000
  0.267094 -0.089031 -0.089031     24.000000
  0.089031  0.089031  0.160256     24.000000
  0.338319 -0.160256 -0.089031     48.000000
  0.302707 -0.124644 -0.053419     48.000000
  0.089031  0.089031 -0.338319     24.000000
  0.124644  0.124644  0.124644      8.000000
  0.373932 -0.124644 -0.124644     24.000000

 SYSTEM =  Co-fcc
 POSCAR =  Co

 Startparameter for this run:
   NWRITE =      2    write-flag & timer
   PREC   = accura    normal or accurate (medium, high low for compatibility)
   ISTART =      0    job   : 0-new  1-cont  2-samecut
   ICHARG =      2    charge: 1-file 2-atom 10-const
   ISPIN  =      2    spin polarized calculation?
   LNONCOLLINEAR =      F non collinear calculations
   LSORBIT =      F    spin-orbit coupling
   INIWAV =      1    electr: 0-lowe 1-rand  2-diag
   LASPH  =      F    aspherical Exc in radial PAW
 Electronic Relaxation 1
   ENCUT  =  400.0 eV  29.40 Ry    5.42 a.u.   4.05  4.05  4.05*2*pi/ulx,y,z
   ENINI  =  400.0     initial cutoff
   ENAUG  =  477.8 eV  augmentation charge cutoff
   NELM   =    100;   NELMIN=  2; NELMDL= -5     # of ELM steps
   EDIFF  = 0.1E-05   stopping-criterion for ELM
   LREAL  =      F    real-space projection
   NLSPLINE    = F    spline interpolate recip. space projectors
[...]

 position of ions in fractional coordinates (direct lattice)
   0.00000000  0.00000000  0.00000000

 position of ions in cartesian coordinates  (Angst):
   0.00000000  0.00000000  0.00000000

 k-point   1 :   0.0625 0.0625 0.0625  plane waves:     178
 k-point   2 :   0.1875 0.0625 0.0625  plane waves:     182
 k-point   3 :   0.3125 0.0625 0.0625  plane waves:     196
 k-point   4 :   0.4375 0.0625 0.0625  plane waves:     196
 k-point   5 :  -0.4375 0.0625 0.0625  plane waves:     195
 k-point   6 :  -0.3125 0.0625 0.0625  plane waves:     196
 k-point   7 :  -0.1875 0.0625 0.0625  plane waves:     190
 k-point   8 :  -0.0625 0.0625 0.0625  plane waves:     178
 k-point   9 :   0.1875 0.1875 0.0625  plane waves:     189
 k-point  10 :   0.3125 0.1875 0.0625  plane waves:     195
 k-point  11 :   0.4375 0.1875 0.0625  plane waves:     196
 k-point  12 :  -0.4375 0.1875 0.0625  plane waves:     195
 k-point  13 :  -0.3125 0.1875 0.0625  plane waves:     197
 k-point  14 :  -0.1875 0.1875 0.0625  plane waves:     199
 k-point  15 :  -0.0625 0.1875 0.0625  plane waves:     190
 k-point  16 :   0.3125 0.3125 0.0625  plane waves:     198
 k-point  17 :   0.4375 0.3125 0.0625  plane waves:     201
 k-point  18 :  -0.4375 0.3125 0.0625  plane waves:     197
 k-point  19 :  -0.3125 0.3125 0.0625  plane waves:     196
 k-point  20 :  -0.1875 0.3125 0.0625  plane waves:     197
 k-point  21 :  -0.0625 0.3125 0.0625  plane waves:     197
 k-point  22 :   0.4375 0.4375 0.0625  plane waves:     201
 k-point  23 :  -0.4375 0.4375 0.0625  plane waves:     201
 k-point  24 :  -0.3125 0.4375 0.0625  plane waves:     198
 k-point  25 :  -0.1875 0.4375 0.0625  plane waves:     197
 k-point  26 :  -0.0625 0.4375 0.0625  plane waves:     195
 k-point  27 :  -0.4375-0.4375 0.0625  plane waves:     196
 k-point  28 :  -0.3125-0.4375 0.0625  plane waves:     202
 k-point  29 :  -0.1875-0.4375 0.0625  plane waves:     196
 k-point  30 :  -0.3125-0.3125 0.0625  plane waves:     202
 k-point  31 :  -0.1875-0.3125 0.0625  plane waves:     196
 k-point  32 :  -0.1875-0.1875 0.0625  plane waves:     193
 k-point  33 :   0.1875 0.1875 0.1875  plane waves:     193
 k-point  34 :   0.3125 0.1875 0.1875  plane waves:     194
 k-point  35 :   0.4375 0.1875 0.1875  plane waves:     199
 k-point  36 :  -0.4375 0.1875 0.1875  plane waves:     196
 k-point  37 :  -0.3125 0.1875 0.1875  plane waves:     195
 k-point  38 :  -0.1875 0.1875 0.1875  plane waves:     194
 k-point  39 :   0.3125 0.3125 0.1875  plane waves:     196
 k-point  40 :   0.4375 0.3125 0.1875  plane waves:     198
 k-point  41 :  -0.4375 0.3125 0.1875  plane waves:     198
 k-point  42 :  -0.3125 0.3125 0.1875  plane waves:     198
 k-point  43 :  -0.1875 0.3125 0.1875  plane waves:     197
 k-point  44 :   0.4375 0.4375 0.1875  plane waves:     195
 k-point  45 :  -0.4375 0.4375 0.1875  plane waves:     200
 k-point  46 :  -0.3125 0.4375 0.1875  plane waves:     202
 k-point  47 :  -0.1875 0.4375 0.1875  plane waves:     199
 k-point  48 :  -0.4375-0.4375 0.1875  plane waves:     200
 k-point  49 :  -0.3125-0.4375 0.1875  plane waves:     200
 k-point  50 :  -0.3125-0.3125 0.1875  plane waves:     201
 k-point  51 :   0.3125 0.3125 0.3125  plane waves:     198
 k-point  52 :   0.4375 0.3125 0.3125  plane waves:     195
 k-point  53 :  -0.4375 0.3125 0.3125  plane waves:     198
 k-point  54 :  -0.3125 0.3125 0.3125  plane waves:     192
 k-point  55 :   0.4375 0.4375 0.3125  plane waves:     198
 k-point  56 :  -0.4375 0.4375 0.3125  plane waves:     197
 k-point  57 :  -0.3125 0.4375 0.3125  plane waves:     198
 k-point  58 :  -0.4375-0.4375 0.3125  plane waves:     196
 k-point  59 :   0.4375 0.4375 0.4375  plane waves:     195
 k-point  60 :  -0.4375 0.4375 0.4375  plane waves:     196

 maximum and minimum number of plane-waves per node :        43       26

 maximum number of plane-waves:       202
 maximum index in each direction:
   IXMAX=    4   IYMAX=    4   IZMAX=    3
   IXMIN=   -4   IYMIN=   -4   IZMIN=   -4

 parallel 3D FFT for wavefunctions:
    minimum data exchange during FFTs selected (reduces bandwidth)
 parallel 3D FFT for charge:
    minimum data exchange during FFTs selected (reduces bandwidth)

 Broyden mixing: mesh for mixing (old mesh)
   NGX =  9   NGY =  9   NGZ =  9
  (NGX  = 32   NGY  = 32   NGZ  = 32)
  gives a total of    729 points

 initial charge density was supplied:
 charge density of overlapping atoms calculated
 number of electron       9.0000000 magnetization       3.0000000
 keeping initial charge density in first step

 Maximum index for augmentation-charges         1165 (set IRDMAX)

 First call to EWALD:  gamma=   0.802
 Maximum number of real-space cells 3x 3x 3
 Maximum number of reciprocal cells 3x 3x 3

--------------------------------------- Iteration      1(   1)  ---------------------------------------

 eigenvalue-minimisations  :  2948
 total energy-change (2. order) : 0.2347927E+02  (-0.3560264E+03)
 number of electron       9.0000000 magnetization       3.0000000
 augmentation part        9.0000000 magnetization       3.0000000

 Free energy of the ion-electron system (eV)
  alpha Z        PSCENC =        39.18058524
  Ewald energy   TEWEN  =      -761.78120824
  -Hartree energ DENC   =      -149.59159932
  -exchange      EXHF   =         0.00000000
  -V(xc)+E(xc)   XCENC  =        17.82600435
  PAW double counting   =       719.99081943     -772.94345096
  entropy T*S    EENTRO =        -0.00068515
  eigenvalues    EBANDS =       117.44107321
  atomic energy  EATOM  =       813.35773410
  Solvation  Ediel_sol  =         0.00000000
  free energy    TOTEN  =        23.47927267 eV

  energy without entropy =       23.47995782  energy(sigma->0) =       23.47961524

[...]

 eigenvalue-minimisations  :  3084
 total energy-change (2. order) :-0.3053384E+02  (-0.2858576E+02)
 number of electron       9.0000000 magnetization       3.0000000
 augmentation part        9.0000000 magnetization       3.0000000

[...]

 Broyden mixing:
  rms(total) = 0.11391E+01    rms(broyden)= 0.11391E+01
  rms(prec ) = 0.32228E+01
  weight for this iteration     100.00

[...]

 eigenvalues of (default mixing * dielectric matrix)
  average eigenvalue GAMMA=   0.8743
  0.8743

[...]

 average (electrostatic) potential at core
  the test charge radii are     1.0452
  (the norm of the test charge is              1.0000)
       1 -78.2468

 E-fermi :  10.3821     XC(G=0): -13.4268     alpha+bet :-17.7917

 Fermi energy:        10.3820724046

 spin component 1

 k-point     1 :       0.0625    0.0625    0.0625
  band No.  band energies     occupation
      1       1.5313      1.00000
      2       7.6473      1.00000
      3       7.7289      1.00000
      4       7.7289      1.00000
      5       8.7607      1.00000
      6       8.7607      1.00000
      7      33.1312      0.00000
      8      36.0963      0.00000
      9      37.5871      0.00000
     10      37.5871      0.00000
     11      41.4996      0.00000
     12      41.4997      0.00000

[...]

 k-point    60 :      -0.4375    0.4375    0.4375
  band No.  band energies     occupation
      1       5.5293      1.00000
      2       7.3026      1.00000
      3       7.8133      1.00000
      4       8.3293      1.00000
      5       9.5748      1.00000
      6      11.9643      0.00000
      7      16.7995      0.00000
      8      29.1700      0.00000
      9      33.0903      0.00000
     10      33.3379      0.00000
     11      40.9095      0.00000
     12      41.4094      0.00000
 Fermi energy:        10.3820724046

[...]

 soft charge-density along one line, spin component           1
         0         1         2         3         4         5         6         7         8         9
 total charge-density along one line

[...]

------------------------ aborting loop because EDIFF is reached ----------------------------------------

 total charge

# of ion       s       p       d       tot
    1        0.491   0.525   7.260   8.276

 magnetization (x)

[...]

  FORCE on cell =-STRESS in cart. coord.  units (eV):
  Direction    XX          YY          ZZ          XY          YZ          ZX
  Alpha Z    39.18059    39.18059    39.18059
  Ewald    -253.92708  -253.92708  -253.92708     0.00000     0.00000     0.00000
  Hartree    43.98866    43.98866    43.98866     0.00000     0.00000     0.00000
  E(xc)     -46.25514   -46.25514   -46.25514    -0.00000    -0.00000    -0.00000
  Local      -9.68565    -9.68565    -9.68565     0.00006     0.00006     0.00006
  n-local    -4.40455    -3.49833    -6.61668     1.84835    -2.01281    -0.04781
  augment   155.47122   155.47122   155.47122    -0.00005    -0.00005    -0.00005
  Kinetic    75.25012    74.69879    78.19064    -0.71781     0.76557    -0.11649
  Fock        0.00000     0.00000     0.00000     0.00000     0.00000     0.00000
  Total      -0.02073    -0.02073    -0.02073     0.00000     0.00000     0.00000
  in kB      -3.07278    -3.07278    -3.07278     0.00000     0.00000     0.00000

 VOLUME and BASIS-vectors are now :
  energy-cutoff  :      400.00
  volume of cell :       10.81
      direct lattice vectors                 reciprocal lattice vectors
     0.000000000  1.755000000  1.755000000    -0.284900285  0.284900285  0.284900285
     1.755000000  0.000000000  1.755000000     0.284900285 -0.284900285  0.284900285
     1.755000000  1.755000000  0.000000000     0.284900285  0.284900285 -0.284900285

[...]

 FORCES acting on ions
    electron-ion (+dipol)            ewald-force                    non-local-force                 convergence-correction
   0.764E-15 0.208E-15 0.201E-15   0.813E-15 0.404E-15 -.279E-14   0.000E+00 -.414E-24 0.000E+00   0.373E-14 0.102E-13 0.773E-14
   0.764E-15 0.208E-15 0.201E-15   0.813E-15 0.404E-15 -.279E-14   0.000E+00 -.414E-24 0.000E+00   0.373E-14 0.102E-13 0.773E-14

 POSITION                                       TOTAL-FORCE (eV/Angst)
      0.00000      0.00000      0.00000         0.000000      0.000000      0.000000
    total drift:                                0.000000      0.000000      0.000000

  FREE ENERGIE OF THE ION-ELECTRON SYSTEM (eV)
  free  energy   TOTEN  =        -7.01913443 eV

  energy  without entropy=       -7.01764706  energy(sigma->0) =       -7.01839074

[...]

 d Force = 0.0000000E+00[ 0.000E+00, 0.000E+00]  d Energy =-0.1495583E-04 0.150E-04
 d Force = 0.0000000E+00[ 0.000E+00, 0.000E+00]  d Ewald  = 0.7627431E+00-0.763E+00

 Steepest descent step on ions:
 trial-energy change:    0.000015  1 .order    0.000012   -0.000062    0.000087
  (g-gl).g = 0.622E-04      g.g   = 0.622E-04  gl.gl    = 0.000E+00
 g(Force)  = 0.844E-64   g(Stress)= 0.622E-04 ortho     = 0.000E+00
 gamma     =   0.00000
 trial     =   1.00000
 opt step  =   0.41724  (harmonic =   0.41724) maximal distance =0.00000000
 next E    =    -7.019147   (d E  =  -0.00001)

[...]

 eigenvalue-minimisations  :  2636
 total energy-change (2. order) : 0.4301559E-05  (-0.5356036E-06)
 number of electron       9.0000000 magnetization       1.5856760
 augmentation part        5.1276006 magnetization       1.4275172

 Broyden mixing:
  rms(total) = 0.26154E-03    rms(broyden)= 0.26153E-03
  rms(prec ) = 0.34573E-03
  weight for this iteration     100.00

 eigenvalues of (default mixing * dielectric matrix)
  average eigenvalue GAMMA=   1.1562
  2.1401  1.1328  0.7360  0.6160

[...]

--------------------------------------- Iteration      3(   6)  ---------------------------------------

 eigenvalue-minimisations  :  1688
 total energy-change (2. order) :-0.2156751E-06  (-0.1781773E-07)
 number of electron       9.0000000 magnetization       1.5856760
 augmentation part        5.1276006 magnetization       1.4275172

 Free energy of the ion-electron system (eV)
  alpha Z        PSCENC =        39.22968187
  Ewald energy   TEWEN  =      -762.09926778
  -Hartree energ DENC   =      -131.83465881
  -exchange      EXHF   =         0.00000000
  -V(xc)+E(xc)   XCENC  =        16.41429247
  PAW double counting   =       905.31378079     -958.33563312
  entropy T*S    EENTRO =        -0.00148613
  eigenvalues    EBANDS =        70.93641288
  atomic energy  EATOM  =       813.35773410
  Solvation  Ediel_sol  =         0.00000000
  free energy    TOTEN  =        -7.01914373 eV

  energy without entropy =       -7.01765761  energy(sigma->0) =       -7.01840067

 average (electrostatic) potential at core
  the test charge radii are     1.0452
  (the norm of the test charge is              1.0000)
       1 -78.2296

 E-fermi :  10.3996     XC(G=0): -13.4340     alpha+bet :-17.8140

 Fermi energy:        10.3995617026

[...]

 k-point    60 :      -0.4375    0.4375    0.4375
  band No.  band energies     occupation
      1       5.5420      1.00000
      2       7.3180      1.00000
      3       7.8299      1.00000
      4       8.3462      1.00000
      5       9.5948      1.00000
      6      11.9853      0.00000
      7      16.8283      0.00000
      8      29.2024      0.00000
      9      33.1290      0.00000
     10      33.3734      0.00000
     11      40.9521      0.00000
     12      41.4505      0.00000
 Fermi energy:        10.3995617026

 spin component 2

[...]

 k-point    60 :      -0.4375    0.4375    0.4375
  band No.  band energies     occupation
      1       6.4701      1.00000
      2       8.7582      1.00000
      3       9.3468      1.00000
      4       9.4962      1.00000
      5      11.4373      0.00000
      6      12.9572      0.00000
      7      17.7472      0.00000
      8      29.3503      0.00000
      9      33.4425      0.00000
     10      33.4474      0.00000
     11      41.1883      0.00000
     12      41.5790      0.00000

[...]

 soft charge-density along one line, spin component           2
         0         1         2         3         4         5         6         7         8         9
 total charge-density along one line

------------------------ aborting loop because EDIFF is reached ----------------------------------------

[...]

  FORCE on cell =-STRESS in cart. coord.  units (eV):
  Direction    XX          YY          ZZ          XY          YZ          ZX
  Alpha Z    39.22968    39.22968    39.22968
  Ewald    -254.03310  -254.03310  -254.03310     0.00000    -0.00000    -0.00000
  Hartree    43.94421    43.94421    43.94421     0.00000     0.00000     0.00000
  E(xc)     -46.26008   -46.26008   -46.26008    -0.00000    -0.00000    -0.00000
  Local      -9.59212    -9.59212    -9.59212     0.00006     0.00006     0.00006
  n-local    -4.37397    -3.46830    -6.58980     1.85022    -2.01666    -0.04793
  augment   155.46168   155.46168   155.46168    -0.00005    -0.00005    -0.00005
  Kinetic    75.26557    74.71482    78.20716    -0.71819     0.76379    -0.11690
  Fock        0.00000     0.00000     0.00000     0.00000     0.00000     0.00000
  Total       0.00210     0.00210     0.00210     0.00000     0.00000     0.00000
  in kB       0.31201     0.31201     0.31201     0.00000     0.00000     0.00000

 VOLUME and BASIS-vectors are now :
  energy-cutoff  :      400.00
  volume of cell :       10.80
      direct lattice vectors                 reciprocal lattice vectors
     0.000000000  1.754267557  1.754267557    -0.285019237  0.285019237  0.285019237
     1.754267557  0.000000000  1.754267557     0.285019237 -0.285019237  0.285019237
     1.754267557  1.754267557  0.000000000     0.285019237  0.285019237 -0.285019237

  length of vectors
     2.480908971  2.480908971  2.480908971     0.493667799  0.493667799  0.493667799

 FORCES acting on ions
    electron-ion (+dipol)            ewald-force                    non-local-force                 convergence-correction
   -.278E-14 -.215E-14 0.502E-15   -.212E-15 0.788E-15 0.538E-15   0.000E+00 0.258E-25 -.773E-28   0.194E-14 0.824E-14 0.267E-14
   -.278E-14 -.215E-14 0.502E-15   -.212E-15 0.788E-15 0.538E-15   0.000E+00 0.258E-25 -.773E-28   0.194E-14 0.824E-14 0.267E-14

 POSITION                                       TOTAL-FORCE (eV/Angst)
      0.00000      0.00000      0.00000         0.000000      0.000000      0.000000
    total drift:                               -0.000000      0.000000      0.000000

  FREE ENERGIE OF THE ION-ELECTRON SYSTEM (eV)
  free  energy   TOTEN  =        -7.01914373 eV

  energy  without entropy=       -7.01765761  energy(sigma->0) =       -7.01840067

 d Force = 0.0000000E+00[ 0.000E+00, 0.000E+00]  d Energy = 0.2425926E-04-0.243E-04
 d Force = 0.0000000E+00[ 0.000E+00, 0.000E+00]  d Ewald  =-0.4446835E+00 0.445E+00

 reached required accuracy - stopping structural energy minimisation
 writing wavefunctions

 total charge

[...]

 magnetization (x)

# of ion       s       p       d       tot
    1       -0.015  -0.052   1.671   1.604