 vasp.6.3.2 27Jun22 (build Aug 12 2022 00:53:59) complex

 executed on               tv2STD date 2024.11.30  17:14:44

 INCAR:
   SYSTEM = Pt-fcc
   NWRITE = 2    write-flag
   ISTART = 0    job   : 0-new, 1-cont, 2-samecut
   ICHARG = 2    charge: 0-wave, 1-file, 2-atom, >10-const
   INIWAV = 1    electr: 0-lowe 1-rand  2-diag
   ENCUT = 425.0     energy cutoff in eV
   PREC = accurate      normal | accurate
   ADDGRID = .FALSE.  (use fine grid)
   NELM = 100     number of ELM steps
   EDIFF = 1E-06    energy stopping-criterion for ELM
   LREAL = .FALSE.      real-space projection (.FALSE., .TRUE., On, Auto)
   ALGO = Normal     Normal, Fast, Very_Fast
   LWAVE = .TRUE.
   LCHARG = .TRUE.
   NSW = 100       max number of geometry steps
   IBRION = 2     ionic relax: 0-MD, 1-quasi-Newton, 2-CG, 3-Damped MD
   EDIFFG = -0.02  force (eV/A) stopping-criterion for geometry steps
   ISIF = 2     (1:force\=y stress\=trace only ions\=y shape\=n volume\=n)
   ISYM = 1     (1-use symmetry, 0-no symmetry)
   ISMEAR = 0     (-1-Fermi, 1-Methfessel/Paxton)
   SIGMA = 0.05   broadening in eV
   LORBIT = 11

 POTCAR:    PAW_PBE Pt_pv 12Dec2005
 POTCAR:    PAW_PBE Pt_pv 12Dec2005
   VRHFIN =Pt: 5ps1d9

   TITEL  = PAW_PBE Pt_pv 12Dec2005
   POMASS =  195.080; ZVAL   =   16.000    mass and valenz
   ENMAX  =  294.607; ENMIN  =  220.955 eV

  PAW_PBE Pt_pv 12Dec2005               :

 POSCAR: Pt
  positions in cartesian coordinates
 exchange correlation table for  LEXCH =        8
   RHO(1)=    0.500       N(1)  =     2000
   RHO(2)=  100.500       N(2)  =     4000

 ion  position               nearest neighbor table
   1  0.000  0.000  0.000-

  LATTYP: Found a face centered cubic cell.
 ALAT       =     3.9795634333

  Lattice vectors:

 A1 = (   0.0000000000,   1.9897817167,   1.9897817167)
 A2 = (   1.9897817167,   0.0000000000,   1.9897817167)
 A3 = (   1.9897817167,   1.9897817167,   0.0000000000)

Analysis of symmetry for initial positions (statically):
 Subroutine PRICEL returns:
 Original cell was already a primitive cell.

 Routine SETGRP: Setting up the symmetry group for a
 face centered cubic supercell.

 Subroutine GETGRP returns: Found 48 space group operations
 (whereof 48 operations were pure point group operations)
 out of a pool of 48 trial point group operations.

The static configuration has the point symmetry O_h .

Analysis of symmetry for dynamics (positions and initial velocities):
 Subroutine PRICEL returns:
 Original cell was already a primitive cell.

 Routine SETGRP: Setting up the symmetry group for a
 face centered cubic supercell.

 Subroutine GETGRP returns: Found 48 space group operations
 (whereof 48 operations were pure point group operations)
 out of a pool of 48 trial point group operations.

The dynamic configuration has the point symmetry O_h .

 Subroutine INISYM returns: Found 48 space group operations
 (whereof 48 operations are pure point group operations),
 and found     1 'primitive' translations

                                     Primitive cell

  volume of cell :      15.7560

  direct lattice vectors                    reciprocal lattice vectors
     0.000000000  1.989781717  1.989781717    -0.251283845  0.251283845  0.251283845
     1.989781717  0.000000000  1.989781717     0.251283845 -0.251283845  0.251283845
     1.989781717  1.989781717  0.000000000     0.251283845  0.251283845 -0.251283845

  length of vectors
     2.813976290  2.813976290  2.813976290     0.435236386  0.435236386  0.435236386

  position of ions in fractional coordinates (direct lattice)
     0.000000000  0.000000000  0.000000000

  ion indices of the primitive-cell ions
   primitive index   ion index
                 1           1

 KPOINTS: Automatic mesh

Automatic generation of k-mesh.
 Grid dimensions read from file:
 generate k-points for:   10   10   10

 Generating k-lattice:

  Cartesian coordinates                     Fractional coordinates (reciprocal lattice)
    -0.025128384  0.025128384  0.025128384     0.100000000  0.000000000  0.000000000
     0.025128384 -0.025128384  0.025128384     0.000000000  0.100000000  0.000000000
     0.025128384  0.025128384 -0.025128384     0.000000000  0.000000000  0.100000000

  Length of vectors
     0.043523639  0.043523639  0.043523639

  Shift w.r.t. Gamma in fractional coordinates (k-lattice)
     0.500000000  0.500000000  0.500000000

 Subroutine IBZKPT returns following result:

 Found    110 irreducible k-points:

 Following reciprocal coordinates:
            Coordinates               Weight
  0.050000  0.050000  0.050000      8.000000
  0.150000  0.050000  0.050000     24.000000
  0.250000  0.050000  0.050000     24.000000
  0.350000  0.050000  0.050000     24.000000
  0.450000  0.050000  0.050000     24.000000
 -0.450000  0.050000  0.050000     24.000000
 -0.350000  0.050000  0.050000     24.000000
 -0.250000  0.050000  0.050000     24.000000
 -0.150000  0.050000  0.050000     24.000000
 -0.050000  0.050000  0.050000     24.000000
  0.150000  0.150000  0.050000     24.000000
  0.250000  0.150000  0.050000     48.000000
  0.350000  0.150000  0.050000     48.000000
  0.450000  0.150000  0.050000     48.000000
 -0.450000  0.150000  0.050000     48.000000
 -0.350000  0.150000  0.050000     48.000000
 -0.250000  0.150000  0.050000     48.000000
 -0.150000  0.150000  0.050000     48.000000
 -0.050000  0.150000  0.050000     48.000000
  0.250000  0.250000  0.050000     24.000000
  0.350000  0.250000  0.050000     48.000000
  0.450000  0.250000  0.050000     48.000000
 -0.450000  0.250000  0.050000     48.000000
 -0.350000  0.250000  0.050000     48.000000
 -0.250000  0.250000  0.050000     48.000000
 -0.150000  0.250000  0.050000     48.000000
 -0.050000  0.250000  0.050000     48.000000
  0.350000  0.350000  0.050000     24.000000
  0.450000  0.350000  0.050000     48.000000
 -0.450000  0.350000  0.050000     48.000000
 -0.350000  0.350000  0.050000     48.000000
 -0.250000  0.350000  0.050000     48.000000
 -0.150000  0.350000  0.050000     48.000000
 -0.050000  0.350000  0.050000     48.000000
  0.450000  0.450000  0.050000     24.000000
 -0.450000  0.450000  0.050000     48.000000
 -0.350000  0.450000  0.050000     48.000000
 -0.250000  0.450000  0.050000     48.000000
 -0.150000  0.450000  0.050000     48.000000
 -0.050000  0.450000  0.050000     48.000000
 -0.450000 -0.450000  0.050000     24.000000
 -0.350000 -0.450000  0.050000     48.000000
 -0.250000 -0.450000  0.050000     48.000000
 -0.150000 -0.450000  0.050000     48.000000
 -0.350000 -0.350000  0.050000     24.000000
 -0.250000 -0.350000  0.050000     48.000000
 -0.150000 -0.350000  0.050000     48.000000
 -0.250000 -0.250000  0.050000     24.000000
 -0.150000 -0.250000  0.050000     48.000000
 -0.150000 -0.150000  0.050000     24.000000
  0.150000  0.150000  0.150000      8.000000
  0.250000  0.150000  0.150000     24.000000
  0.350000  0.150000  0.150000     24.000000
  0.450000  0.150000  0.150000     24.000000
 -0.450000  0.150000  0.150000     24.000000
 -0.350000  0.150000  0.150000     24.000000
 -0.250000  0.150000  0.150000     24.000000
 -0.150000  0.150000  0.150000     24.000000
  0.250000  0.250000  0.150000     24.000000
  0.350000  0.250000  0.150000     48.000000
[...]
 -0.350000  0.450000  0.250000     48.000000
 -0.250000  0.450000  0.250000     48.000000
 -0.450000 -0.450000  0.250000     24.000000
 -0.350000 -0.450000  0.250000     48.000000
 -0.350000 -0.350000  0.250000     24.000000
  0.350000  0.350000  0.350000      8.000000
  0.450000  0.350000  0.350000     24.000000
 -0.450000  0.350000  0.350000     24.000000
 -0.350000  0.350000  0.350000     24.000000
  0.450000  0.450000  0.350000     24.000000
 -0.450000  0.450000  0.350000     48.000000
 -0.350000  0.450000  0.350000     48.000000
 -0.450000 -0.450000  0.350000     24.000000
  0.450000  0.450000  0.450000      8.000000
 -0.450000  0.450000  0.450000     24.000000

 Following cartesian coordinates:
            Coordinates               Weight
  0.012564  0.012564  0.012564      8.000000
 -0.012564  0.037693  0.037693     24.000000
 -0.037693  0.062821  0.062821     24.000000
 -0.062821  0.087949  0.087949     24.000000
 -0.087949  0.113078  0.113078     24.000000
  0.138206 -0.113078 -0.113078     24.000000
  0.113078 -0.087949 -0.087949     24.000000
  0.087949 -0.062821 -0.062821     24.000000
  0.062821 -0.037693 -0.037693     24.000000
  0.037693 -0.012564 -0.012564     24.000000
  0.012564  0.012564  0.062821     24.000000
 -0.012564  0.037693  0.087949     48.000000
 -0.037693  0.062821  0.113078     48.000000
 -0.062821  0.087949  0.138206     48.000000
  0.163334 -0.138206 -0.087949     48.000000
  0.138206 -0.113078 -0.062821     48.000000
  0.113078 -0.087949 -0.037693     48.000000
  0.087949 -0.062821 -0.012564     48.000000
  0.062821 -0.037693  0.012564     48.000000
  0.012564  0.012564  0.113078     24.000000
 -0.012564  0.037693  0.138206     48.000000
 -0.037693  0.062821  0.163334     48.000000
  0.188463 -0.163334 -0.062821     48.000000
  0.163334 -0.138206 -0.037693     48.000000
  0.138206 -0.113078 -0.012564     48.000000
  0.113078 -0.087949  0.012564     48.000000
  0.087949 -0.062821  0.037693     48.000000
  0.012564  0.012564  0.163334     24.000000
 -0.012564  0.037693  0.188463     48.000000
  0.213591 -0.188463 -0.037693     48.000000
  0.188463 -0.163334 -0.012564     48.000000
  0.163334 -0.138206  0.012564     48.000000
  0.138206 -0.113078  0.037693     48.000000
  0.113078 -0.087949  0.062821     48.000000
  0.012564  0.012564  0.213591     24.000000
  0.238720 -0.213591 -0.012564     48.000000
  0.213591 -0.188463  0.012564     48.000000
  0.188463 -0.163334  0.037693     48.000000
  0.163334 -0.138206  0.062821     48.000000
  0.138206 -0.113078  0.087949     48.000000
  0.012564  0.012564 -0.238720     24.000000
 -0.012564  0.037693 -0.213591     48.000000
 -0.037693  0.062821 -0.188463     48.000000
 -0.062821  0.087949 -0.163334     48.000000
  0.012564  0.012564 -0.188463     24.000000
 -0.012564  0.037693 -0.163334     48.000000
 -0.037693  0.062821 -0.138206     48.000000
  0.012564  0.012564 -0.138206     24.000000
 -0.012564  0.037693 -0.113078     48.000000
  0.012564  0.012564 -0.087949     24.000000
  0.037693  0.037693  0.037693      8.000000
  0.012564  0.062821  0.062821     24.000000
 -0.012564  0.087949  0.087949     24.000000
 -0.037693  0.113078  0.113078     24.000000
  0.188463 -0.113078 -0.113078     24.000000
  0.163334 -0.087949 -0.087949     24.000000
  0.138206 -0.062821 -0.062821     24.000000
  0.113078 -0.037693 -0.037693     24.000000
  0.037693  0.037693  0.087949     24.000000
  0.012564  0.062821  0.113078     48.000000
[...]
  0.263848 -0.138206 -0.037693     48.000000
  0.238720 -0.113078 -0.012564     48.000000
  0.062821  0.062821 -0.288976     24.000000
  0.037693  0.087949 -0.263848     48.000000
  0.062821  0.062821 -0.238720     24.000000
  0.087949  0.087949  0.087949      8.000000
  0.062821  0.113078  0.113078     24.000000
  0.288976 -0.113078 -0.113078     24.000000
  0.263848 -0.087949 -0.087949     24.000000
  0.087949  0.087949  0.138206     24.000000
  0.314105 -0.138206 -0.087949     48.000000
[...]
   0.15000000  0.15000000  0.05000000       0.006
   0.25000000  0.15000000  0.05000000       0.012
   0.35000000  0.15000000  0.05000000       0.012
   0.45000000  0.15000000  0.05000000       0.012
  -0.45000000  0.15000000  0.05000000       0.012
  -0.35000000  0.15000000  0.05000000       0.012
  -0.25000000  0.15000000  0.05000000       0.012
  -0.15000000  0.15000000  0.05000000       0.012
  -0.05000000  0.15000000  0.05000000       0.012
   0.25000000  0.25000000  0.05000000       0.006
   0.35000000  0.25000000  0.05000000       0.012
   0.45000000  0.25000000  0.05000000       0.012
  -0.45000000  0.25000000  0.05000000       0.012
  -0.35000000  0.25000000  0.05000000       0.012
  -0.25000000  0.25000000  0.05000000       0.012
  -0.15000000  0.25000000  0.05000000       0.012
  -0.05000000  0.25000000  0.05000000       0.012
   0.35000000  0.35000000  0.05000000       0.006
   0.45000000  0.35000000  0.05000000       0.012
  -0.45000000  0.35000000  0.05000000       0.012
  -0.35000000  0.35000000  0.05000000       0.012
  -0.25000000  0.35000000  0.05000000       0.012
  -0.15000000  0.35000000  0.05000000       0.012
  -0.05000000  0.35000000  0.05000000       0.012
   0.45000000  0.45000000  0.05000000       0.006
  -0.45000000  0.45000000  0.05000000       0.012
  -0.35000000  0.45000000  0.05000000       0.012
  -0.25000000  0.45000000  0.05000000       0.012
  -0.15000000  0.45000000  0.05000000       0.012
  -0.05000000  0.45000000  0.05000000       0.012
  -0.45000000 -0.45000000  0.05000000       0.006
  -0.35000000 -0.45000000  0.05000000       0.012
  -0.25000000 -0.45000000  0.05000000       0.012
  -0.15000000 -0.45000000  0.05000000       0.012
  -0.35000000 -0.35000000  0.05000000       0.006
  -0.25000000 -0.35000000  0.05000000       0.012
  -0.15000000 -0.35000000  0.05000000       0.012
  -0.25000000 -0.25000000  0.05000000       0.006
  -0.15000000 -0.25000000  0.05000000       0.012
  -0.15000000 -0.15000000  0.05000000       0.006
   0.15000000  0.15000000  0.15000000       0.002
   0.25000000  0.15000000  0.15000000       0.006
   0.35000000  0.15000000  0.15000000       0.006
   0.45000000  0.15000000  0.15000000       0.006
  -0.45000000  0.15000000  0.15000000       0.006
  -0.35000000  0.15000000  0.15000000       0.006
  -0.25000000  0.15000000  0.15000000       0.006
  -0.15000000  0.15000000  0.15000000       0.006
   0.25000000  0.25000000  0.15000000       0.006
   0.35000000  0.25000000  0.15000000       0.012
[...]
  -0.35000000  0.45000000  0.25000000       0.012
  -0.25000000  0.45000000  0.25000000       0.012
  -0.45000000 -0.45000000  0.25000000       0.006
  -0.35000000 -0.45000000  0.25000000       0.012
  -0.35000000 -0.35000000  0.25000000       0.006
   0.35000000  0.35000000  0.35000000       0.002
   0.45000000  0.35000000  0.35000000       0.006
  -0.45000000  0.35000000  0.35000000       0.006
  -0.35000000  0.35000000  0.35000000       0.006
   0.45000000  0.45000000  0.35000000       0.006
  -0.45000000  0.45000000  0.35000000       0.012
  -0.35000000  0.45000000  0.35000000       0.012
  -0.45000000 -0.45000000  0.35000000       0.006
   0.45000000  0.45000000  0.45000000       0.002
  -0.45000000  0.45000000  0.45000000       0.006

 position of ions in fractional coordinates (direct lattice)
   0.00000000  0.00000000  0.00000000

 position of ions in cartesian coordinates  (Angst):
   0.00000000  0.00000000  0.00000000

 k-point   1 :   0.0500 0.0500 0.0500  plane waves:     328
 k-point   2 :   0.1500 0.0500 0.0500  plane waves:     317
 k-point   3 :   0.2500 0.0500 0.0500  plane waves:     314
 k-point   4 :   0.3500 0.0500 0.0500  plane waves:     311
 k-point   5 :   0.4500 0.0500 0.0500  plane waves:     318
 k-point   6 :  -0.4500 0.0500 0.0500  plane waves:     317
 k-point   7 :  -0.3500 0.0500 0.0500  plane waves:     315
 k-point   8 :  -0.2500 0.0500 0.0500  plane waves:     311
 k-point   9 :  -0.1500 0.0500 0.0500  plane waves:     315
 k-point  10 :  -0.0500 0.0500 0.0500  plane waves:     322
 k-point  11 :   0.1500 0.1500 0.0500  plane waves:     315
 k-point  12 :   0.2500 0.1500 0.0500  plane waves:     314
 k-point  13 :   0.3500 0.1500 0.0500  plane waves:     311
 k-point  14 :   0.4500 0.1500 0.0500  plane waves:     312
 k-point  15 :  -0.4500 0.1500 0.0500  plane waves:     315
 k-point  16 :  -0.3500 0.1500 0.0500  plane waves:     312
 k-point  17 :  -0.2500 0.1500 0.0500  plane waves:     313
 k-point  18 :  -0.1500 0.1500 0.0500  plane waves:     313
 k-point  19 :  -0.0500 0.1500 0.0500  plane waves:     315
 k-point  20 :   0.2500 0.2500 0.0500  plane waves:     307
 k-point  21 :   0.3500 0.2500 0.0500  plane waves:     314
 k-point  22 :   0.4500 0.2500 0.0500  plane waves:     319
 k-point  23 :  -0.4500 0.2500 0.0500  plane waves:     313
 k-point  24 :  -0.3500 0.2500 0.0500  plane waves:     310
 k-point  25 :  -0.2500 0.2500 0.0500  plane waves:     316
 k-point  26 :  -0.1500 0.2500 0.0500  plane waves:     316
 k-point  27 :  -0.0500 0.2500 0.0500  plane waves:     311
 k-point  28 :   0.3500 0.3500 0.0500  plane waves:     317
 k-point  29 :   0.4500 0.3500 0.0500  plane waves:     317
 k-point  30 :  -0.4500 0.3500 0.0500  plane waves:     314
 k-point  31 :  -0.3500 0.3500 0.0500  plane waves:     310
 k-point  32 :  -0.2500 0.3500 0.0500  plane waves:     314
 k-point  33 :  -0.1500 0.3500 0.0500  plane waves:     315
 k-point  34 :  -0.0500 0.3500 0.0500  plane waves:     312
 k-point  35 :   0.4500 0.4500 0.0500  plane waves:     322
 k-point  36 :  -0.4500 0.4500 0.0500  plane waves:     316
 k-point  37 :  -0.3500 0.4500 0.0500  plane waves:     314
 k-point  38 :  -0.2500 0.4500 0.0500  plane waves:     310
 k-point  39 :  -0.1500 0.4500 0.0500  plane waves:     310
 k-point  40 :  -0.0500 0.4500 0.0500  plane waves:     316
 k-point  41 :  -0.4500-0.4500 0.0500  plane waves:     312
 k-point  42 :  -0.3500-0.4500 0.0500  plane waves:     317
 k-point  43 :  -0.2500-0.4500 0.0500  plane waves:     312
 k-point  44 :  -0.1500-0.4500 0.0500  plane waves:     315
 k-point  45 :  -0.3500-0.3500 0.0500  plane waves:     322
 k-point  46 :  -0.2500-0.3500 0.0500  plane waves:     315
 k-point  47 :  -0.1500-0.3500 0.0500  plane waves:     316
 k-point  48 :  -0.2500-0.2500 0.0500  plane waves:     311
 k-point  49 :  -0.1500-0.2500 0.0500  plane waves:     312
 k-point  50 :  -0.1500-0.1500 0.0500  plane waves:     312
 k-point  51 :   0.1500 0.1500 0.1500  plane waves:     320
 k-point  52 :   0.2500 0.1500 0.1500  plane waves:     317
 k-point  53 :   0.3500 0.1500 0.1500  plane waves:     313
 k-point  54 :   0.4500 0.1500 0.1500  plane waves:     315
 k-point  55 :  -0.4500 0.1500 0.1500  plane waves:     312
 k-point  56 :  -0.3500 0.1500 0.1500  plane waves:     312
 k-point  57 :  -0.2500 0.1500 0.1500  plane waves:     318
 k-point  58 :  -0.1500 0.1500 0.1500  plane waves:     309
 k-point  59 :   0.2500 0.2500 0.1500  plane waves:     312
 k-point  60 :   0.3500 0.2500 0.1500  plane waves:     313
[...]
 k-point  96 :  -0.3500 0.4500 0.2500  plane waves:     310
 k-point  97 :  -0.2500 0.4500 0.2500  plane waves:     313
 k-point  98 :  -0.4500-0.4500 0.2500  plane waves:     311
 k-point  99 :  -0.3500-0.4500 0.2500  plane waves:     310
 k-point 100 :  -0.3500-0.3500 0.2500  plane waves:     312
 k-point 101 :   0.3500 0.3500 0.3500  plane waves:     308
 k-point 102 :   0.4500 0.3500 0.3500  plane waves:     311
 k-point 103 :  -0.4500 0.3500 0.3500  plane waves:     311
 k-point 104 :  -0.3500 0.3500 0.3500  plane waves:     317
 k-point 105 :   0.4500 0.4500 0.3500  plane waves:     312
 k-point 106 :  -0.4500 0.4500 0.3500  plane waves:     313
 k-point 107 :  -0.3500 0.4500 0.3500  plane waves:     310
 k-point 108 :  -0.4500-0.4500 0.3500  plane waves:     313
 k-point 109 :   0.4500 0.4500 0.4500  plane waves:     317
 k-point 110 :  -0.4500 0.4500 0.4500  plane waves:     317

 maximum and minimum number of plane-waves per node :       328      307

 maximum number of plane-waves:       328
 maximum index in each direction:
   IXMAX=    5   IYMAX=    5   IZMAX=    4
   IXMIN=   -5   IYMIN=   -5   IZMIN=   -5

 serial   3D FFT for wavefunctions
 parallel 3D FFT for charge:
    minimum data exchange during FFTs selected (reduces bandwidth)

 Broyden mixing: mesh for mixing (old mesh)
   NGX =  9   NGY =  9   NGZ =  9
  (NGX  = 40   NGY  = 40   NGZ  = 40)
  gives a total of    729 points

 initial charge density was supplied:
 charge density of overlapping atoms calculated
 number of electron      16.0000000 magnetization
 keeping initial charge density in first step

 Maximum index for augmentation-charges          835 (set IRDMAX)

 First call to EWALD:  gamma=   0.707
 Maximum number of real-space cells 3x 3x 3
 Maximum number of reciprocal cells 3x 3x 3

--------------------------------------- Iteration      1(   1)  ---------------------------------------

 eigenvalue-minimisations  :  5928
 total energy-change (2. order) : 0.1673077E+02  (-0.1170290E+04)
 number of electron      16.0000000 magnetization
 augmentation part       16.0000000 magnetization

 Free energy of the ion-electron system (eV)
  alpha Z        PSCENC =       152.27955882
  Ewald energy   TEWEN  =     -2123.52259528
  -Hartree energ DENC   =      -407.75413922
  -exchange      EXHF   =         0.00000000
  -V(xc)+E(xc)   XCENC  =        63.66756102
  PAW double counting   =      2065.75261637    -2030.83594803
  entropy T*S    EENTRO =        -0.00063294
  eigenvalues    EBANDS =      -131.05066127
  atomic energy  EATOM  =      2428.19501064
  Solvation  Ediel_sol  =         0.00000000
  free energy    TOTEN  =        16.73077011 eV

  energy without entropy =       16.73140305  energy(sigma->0) =       16.73108658

[...]

 eigenvalue-minimisations  :  6984
 total energy-change (2. order) :-0.2313604E+02  (-0.2296389E+02)
 number of electron      16.0000000 magnetization
 augmentation part       16.0000000 magnetization

[...]

 Broyden mixing:
  rms(total) = 0.13892E+01    rms(broyden)= 0.13891E+01
  rms(prec ) = 0.19791E+01
  weight for this iteration     100.00

[...]

 eigenvalues of (default mixing * dielectric matrix)
  average eigenvalue GAMMA=   1.4063
  1.4063

[...]

 eigenvalue-minimisations  :  7464
 total energy-change (2. order) :-0.6044292E-05  (-0.5498943E-06)
 number of electron      16.0000009 magnetization
 augmentation part        4.1127988 magnetization

 Broyden mixing:
  rms(total) = 0.56880E-03    rms(broyden)= 0.56854E-03
  rms(prec ) = 0.58045E-03
  weight for this iteration     100.00

 eigenvalues of (default mixing * dielectric matrix)
  average eigenvalue GAMMA=   1.7484
  2.6783  2.3447  0.9901  1.1843  1.5448

[...]

--------------------------------------- Iteration      1(  11)  ---------------------------------------

 eigenvalue-minimisations  :  3408
 total energy-change (2. order) : 0.7228482E-07  (-0.4255428E-09)
 number of electron      16.0000009 magnetization
 augmentation part        4.1127988 magnetization

 Free energy of the ion-electron system (eV)
  alpha Z        PSCENC =       152.27955882
  Ewald energy   TEWEN  =     -2123.52259528
  -Hartree energ DENC   =      -388.31148406
  -exchange      EXHF   =         0.00000000
  -V(xc)+E(xc)   XCENC  =        62.80957436
  PAW double counting   =      2310.15278576    -2277.74108060
  entropy T*S    EENTRO =        -0.00257460
  eigenvalues    EBANDS =      -169.94121159
  atomic energy  EATOM  =      2428.19501064
  Solvation  Ediel_sol  =         0.00000000
  free energy    TOTEN  =        -6.08201655 eV

  energy without entropy =       -6.07944196  energy(sigma->0) =       -6.08072926

 average (electrostatic) potential at core
  the test charge radii are     0.9952
  (the norm of the test charge is              1.0000)
       1 -89.4419

 E-fermi :  11.2342     XC(G=0): -13.7216     alpha+bet :-16.6494

 Fermi energy:        11.2341828206

 k-point     1 :       0.0500    0.0500    0.0500
  band No.  band energies     occupation
      1     -41.1951      2.00000
      2     -41.1870      2.00000
      3     -41.1870      2.00000
      4       1.5451      2.00000
      5       7.6365      2.00000
      6       7.7166      2.00000
      7       7.7166      2.00000
      8       9.6750      2.00000
      9       9.6750      2.00000
     10      26.0791      0.00000
     11      30.1040      0.00000
     12      30.7975      0.00000
     13      30.7975      0.00000
     14      36.4459      0.00000
     15      40.8834      0.00000
     16      41.6116      0.00000
     17      41.6116      0.00000
     18      44.6554      0.00000
     19      44.6554      0.00000
     20      45.5595      0.00000
     21      51.4740      0.00000
     22      51.4740      0.00000
     23      52.0303      0.00000
     24      58.1647      0.00000

[...]

 k-point   110 :      -0.4500    0.4500    0.4500
  band No.  band energies     occupation
      1     -41.5703      2.00000
      2     -41.2709      2.00000
      3     -41.2491      2.00000
      4       4.6183      2.00000
      5       7.4044      2.00000
      6       7.8667      2.00000
      7       9.4223      2.00000
      8      11.1301      1.99675
      9      12.9991      0.00000
     10      16.7197      0.00000
     11      25.9559      0.00000
     12      28.6912      0.00000
     13      29.7049      0.00000
     14      38.2467      0.00000
     15      38.5928      0.00000
     16      40.9638      0.00000
     17      45.1489      0.00000
     18      45.9196      0.00000
     19      46.1702      0.00000
     20      51.7429      0.00000
     21      52.0517      0.00000
     22      52.3601      0.00000
     23      56.1679      0.00000
     24      56.7421      0.00000

 soft charge-density along one line, spin component           1
         0         1         2         3         4         5         6         7         8         9
 total charge-density along one line

------------------------ aborting loop because EDIFF is reached ----------------------------------------

 total charge

# of ion       s       p       d       tot
    1        0.335   6.076   7.060  13.471

  FORCE on cell =-STRESS in cart. coord.  units (eV):
  Direction    XX          YY          ZZ          XY          YZ          ZX
  Alpha Z   152.27956   152.27956   152.27956
  Ewald    -707.84089  -707.84089  -707.84089    -0.00000     0.00000     0.00000
  Hartree   129.43639   129.43639   129.43639     0.00000     0.00000     0.00000
  E(xc)     -85.40957   -85.40957   -85.40957     0.00000     0.00000     0.00000
  Local     119.42236   119.42236   119.42236    -0.00000    -0.00000    -0.00000
  n-local   -30.54411   -27.96522   -33.28782     3.25606    -3.03924     0.17538
  augment    73.33569    73.33569    73.33569     0.00001     0.00001     0.00001
  Kinetic   348.18346   353.24240   345.48931     4.38089    -3.68380    -0.53733
  Fock        0.00000     0.00000     0.00000     0.00000     0.00000     0.00000
  Total      -0.40380    -0.40380    -0.40380     0.00000     0.00000    -0.00000
  in kB     -41.06062   -41.06062   -41.06062     0.00000     0.00000    -0.00000

 VOLUME and BASIS-vectors are now :
  energy-cutoff  :      425.00
  volume of cell :       15.76
      direct lattice vectors                 reciprocal lattice vectors
     0.000000000  1.989781717  1.989781717    -0.251283845  0.251283845  0.251283845
     1.989781717  0.000000000  1.989781717     0.251283845 -0.251283845  0.251283845
     1.989781717  1.989781717  0.000000000     0.251283845  0.251283845 -0.251283845

  length of vectors
     2.813976290  2.813976290  2.813976290     0.435236386  0.435236386  0.435236386

 FORCES acting on ions
    electron-ion (+dipol)            ewald-force                    non-local-force                 convergence-correction
   -.820E-14 -.749E-14 0.672E-15   -.514E-15 -.225E-14 -.109E-14   0.000E+00 0.000E+00 0.129E-25   -.161E-13 -.868E-13 -.127E-13
   -.820E-14 -.749E-14 0.672E-15   -.514E-15 -.225E-14 -.109E-14   0.000E+00 0.000E+00 0.129E-25   -.161E-13 -.868E-13 -.127E-13

 POSITION                                       TOTAL-FORCE (eV/Angst)
      0.00000      0.00000      0.00000         0.000000     -0.000000      0.000000
    total drift:                               -0.000000     -0.000000     -0.000000

  FREE ENERGIE OF THE ION-ELECTRON SYSTEM (eV)
  free  energy   TOTEN  =        -6.08201655 eV

  energy  without entropy=       -6.07944196  energy(sigma->0) =       -6.08072926

 reached required accuracy - stopping structural energy minimisation
 writing wavefunctions

 total charge

# of ion       s       p       d       tot
    1        0.335   6.076   7.060  13.471