 vasp.6.3.2 27Jun22 (build Aug 12 2022 00:53:59) complex

 executed on               tv2STD date 2024.11.30  17:12:01

 INCAR:
   SYSTEM = Co-fcc
   NWRITE = 2    write-flag
   ISTART = 0    job   : 0-new, 1-cont, 2-samecut
   ICHARG = 2    charge: 0-wave, 1-file, 2-atom, >10-const
   INIWAV = 1    electr: 0-lowe 1-rand  2-diag
   ENCUT = 400.0     energy cutoff in eV
   PREC = Accurate      normal | accurate
   ADDGRID = .FALSE.  (use fine grid)
   NELM = 100     number of ELM steps
   EDIFF = 1E-06    energy stopping-criterion for ELM
   LREAL = .FALSE.      real-space projection (.FALSE., .TRUE., On, Auto)
   ALGO = Normal     Normal, Fast, Very_Fast
   LWAVE = .TRUE.
   LCHARG = .TRUE.
   NSW = 100       max number of geometry steps
   IBRION = 2     ionic relax: 0-MD, 1-quasi-Newton, 2-CG, 3-Damped MD
   EDIFFG = -0.02  force (eV/A) stopping-criterion for geometry steps
   ISIF = 2     (1:force\=y stress\=trace only ions\=y shape\=n volume\=n)
   ISYM = 1     (1-use symmetry, 0-no symmetry)
   ISMEAR = 0     (-1-Fermi, 1-Methfessel/Paxton)
   SIGMA = 0.05   broadening in eV
   LORBIT = 11
   NPAR = 4
   ISPIN = 2
   MAGMOM = 1*3

 POTCAR:    PAW_PBE Co 02Aug2007
 POTCAR:    PAW_PBE Co 02Aug2007
   VRHFIN =Co: d8 s1

   TITEL  = PAW_PBE Co 02Aug2007
   POMASS =   58.933; ZVAL   =    9.000    mass and valenz
   ENMAX  =  267.968; ENMIN  =  200.976 eV

  PAW_PBE Co 02Aug2007                  :

 POSCAR: Co
  positions in cartesian coordinates
 exchange correlation table for  LEXCH =        8
   RHO(1)=    0.500       N(1)  =     2000
   RHO(2)=  100.500       N(2)  =     4000

 ion  position               nearest neighbor table
   1  0.000  0.000  0.000-

  LATTYP: Found a face centered cubic cell.
 ALAT       =     3.4490569262

  Lattice vectors:

 A1 = (   0.0000000000,   1.7245284631,   1.7245284631)
 A2 = (   1.7245284631,   0.0000000000,   1.7245284631)
 A3 = (   1.7245284631,   1.7245284631,   0.0000000000)

Analysis of symmetry for initial positions (statically):
 Subroutine PRICEL returns:
 Original cell was already a primitive cell.

 Routine SETGRP: Setting up the symmetry group for a
 face centered cubic supercell.

 Subroutine GETGRP returns: Found 48 space group operations
 (whereof 48 operations were pure point group operations)
 out of a pool of 48 trial point group operations.

The static configuration has the point symmetry O_h .

Analysis of symmetry for dynamics (positions and initial velocities):
 Subroutine PRICEL returns:
 Original cell was already a primitive cell.

[...]

The dynamic configuration has the point symmetry O_h .

Analysis of structural, dynamic, and magnetic symmetry:
 Subroutine PRICEL returns:
 Original cell was already a primitive cell.

 Routine SETGRP: Setting up the symmetry group for a
 face centered cubic supercell.

 Subroutine GETGRP returns: Found 48 space group operations
 (whereof 48 operations were pure point group operations)
 out of a pool of 48 trial point group operations.

The overall configuration has the point symmetry O_h .

 Subroutine INISYM returns: Found 48 space group operations
 (whereof 48 operations are pure point group operations),
 and found     1 'primitive' translations

                                     Primitive cell

  volume of cell :      10.2575

  direct lattice vectors                    reciprocal lattice vectors
     0.000000000  1.724528463  1.724528463    -0.289934327  0.289934327  0.289934327
     1.724528463  0.000000000  1.724528463     0.289934327 -0.289934327  0.289934327
     1.724528463  1.724528463  0.000000000     0.289934327  0.289934327 -0.289934327

  length of vectors
     2.438851541  2.438851541  2.438851541     0.502180986  0.502180986  0.502180986

  position of ions in fractional coordinates (direct lattice)
     0.000000000  0.000000000  0.000000000

  ion indices of the primitive-cell ions
   primitive index   ion index
                 1           1

 KPOINTS: Automatic mesh

Automatic generation of k-mesh.
 Grid dimensions read from file:
 generate k-points for:    8    8    8

 Generating k-lattice:

  Cartesian coordinates                     Fractional coordinates (reciprocal lattice)
    -0.036241791  0.036241791  0.036241791     0.125000000  0.000000000  0.000000000
     0.036241791 -0.036241791  0.036241791     0.000000000  0.125000000  0.000000000
     0.036241791  0.036241791 -0.036241791     0.000000000  0.000000000  0.125000000

  Length of vectors
     0.062772623  0.062772623  0.062772623

  Shift w.r.t. Gamma in fractional coordinates (k-lattice)
     0.500000000  0.500000000  0.500000000

 Subroutine IBZKPT returns following result:

 Found     60 irreducible k-points:

 Following reciprocal coordinates:
            Coordinates               Weight
  0.062500  0.062500  0.062500      8.000000
  0.187500  0.062500  0.062500     24.000000
  0.312500  0.062500  0.062500     24.000000
  0.437500  0.062500  0.062500     24.000000
 -0.437500  0.062500  0.062500     24.000000
 -0.312500  0.062500  0.062500     24.000000
 -0.187500  0.062500  0.062500     24.000000
 -0.062500  0.062500  0.062500     24.000000
  0.187500  0.187500  0.062500     24.000000
  0.312500  0.187500  0.062500     48.000000
  0.437500  0.187500  0.062500     48.000000
 -0.437500  0.187500  0.062500     48.000000
 -0.312500  0.187500  0.062500     48.000000
 -0.187500  0.187500  0.062500     48.000000
 -0.062500  0.187500  0.062500     48.000000
  0.312500  0.312500  0.062500     24.000000
  0.437500  0.312500  0.062500     48.000000
 -0.437500  0.312500  0.062500     48.000000
 -0.312500  0.312500  0.062500     48.000000
 -0.187500  0.312500  0.062500     48.000000
 -0.062500  0.312500  0.062500     48.000000
  0.437500  0.437500  0.062500     24.000000
 -0.437500  0.437500  0.062500     48.000000
 -0.312500  0.437500  0.062500     48.000000
 -0.187500  0.437500  0.062500     48.000000
 -0.062500  0.437500  0.062500     48.000000
 -0.437500 -0.437500  0.062500     24.000000
 -0.312500 -0.437500  0.062500     48.000000
 -0.187500 -0.437500  0.062500     48.000000
 -0.312500 -0.312500  0.062500     24.000000
 -0.187500 -0.312500  0.062500     48.000000
 -0.187500 -0.187500  0.062500     24.000000
  0.187500  0.187500  0.187500      8.000000
  0.312500  0.187500  0.187500     24.000000
  0.437500  0.187500  0.187500     24.000000
 -0.437500  0.187500  0.187500     24.000000
 -0.312500  0.187500  0.187500     24.000000
 -0.187500  0.187500  0.187500     24.000000
  0.312500  0.312500  0.187500     24.000000
  0.437500  0.312500  0.187500     48.000000
 -0.437500  0.312500  0.187500     48.000000
 -0.312500  0.312500  0.187500     48.000000
 -0.187500  0.312500  0.187500     48.000000
  0.437500  0.437500  0.187500     24.000000
 -0.437500  0.437500  0.187500     48.000000
 -0.312500  0.437500  0.187500     48.000000
 -0.187500  0.437500  0.187500     48.000000
 -0.437500 -0.437500  0.187500     24.000000
 -0.312500 -0.437500  0.187500     48.000000
 -0.312500 -0.312500  0.187500     24.000000
  0.312500  0.312500  0.312500      8.000000
  0.437500  0.312500  0.312500     24.000000
 -0.437500  0.312500  0.312500     24.000000
 -0.312500  0.312500  0.312500     24.000000
  0.437500  0.437500  0.312500     24.000000
 -0.437500  0.437500  0.312500     48.000000
 -0.312500  0.437500  0.312500     48.000000
 -0.437500 -0.437500  0.312500     24.000000
  0.437500  0.437500  0.437500      8.000000
 -0.437500  0.437500  0.437500     24.000000

 Following cartesian coordinates:
            Coordinates               Weight
  0.018121  0.018121  0.018121      8.000000
 -0.018121  0.054363  0.054363     24.000000
 -0.054363  0.090604  0.090604     24.000000
 -0.090604  0.126846  0.126846     24.000000
  0.163088 -0.126846 -0.126846     24.000000
  0.126846 -0.090604 -0.090604     24.000000
  0.090604 -0.054363 -0.054363     24.000000
  0.054363 -0.018121 -0.018121     24.000000
  0.018121  0.018121  0.090604     24.000000
 -0.018121  0.054363  0.126846     48.000000
 -0.054363  0.090604  0.163088     48.000000
  0.199330 -0.163088 -0.090604     48.000000
  0.163088 -0.126846 -0.054363     48.000000
  0.126846 -0.090604 -0.018121     48.000000
  0.090604 -0.054363  0.018121     48.000000
  0.018121  0.018121  0.163088     24.000000
 -0.018121  0.054363  0.199330     48.000000
  0.235572 -0.199330 -0.054363     48.000000
  0.199330 -0.163088 -0.018121     48.000000
  0.163088 -0.126846  0.018121     48.000000
  0.126846 -0.090604  0.054363     48.000000
  0.018121  0.018121  0.235572     24.000000
  0.271813 -0.235572 -0.018121     48.000000
  0.235572 -0.199330  0.018121     48.000000
  0.199330 -0.163088  0.054363     48.000000
  0.163088 -0.126846  0.090604     48.000000
  0.018121  0.018121 -0.271813     24.000000
 -0.018121  0.054363 -0.235572     48.000000
 -0.054363  0.090604 -0.199330     48.000000
  0.018121  0.018121 -0.199330     24.000000
 -0.018121  0.054363 -0.163088     48.000000
  0.018121  0.018121 -0.126846     24.000000
  0.054363  0.054363  0.054363      8.000000
  0.018121  0.090604  0.090604     24.000000
 -0.018121  0.126846  0.126846     24.000000
  0.235572 -0.126846 -0.126846     24.000000
  0.199330 -0.090604 -0.090604     24.000000
  0.163088 -0.054363 -0.054363     24.000000
  0.054363  0.054363  0.126846     24.000000
  0.018121  0.090604  0.163088     48.000000
  0.271813 -0.163088 -0.090604     48.000000
  0.235572 -0.126846 -0.054363     48.000000
  0.199330 -0.090604 -0.018121     48.000000
  0.054363  0.054363  0.199330     24.000000
  0.308055 -0.199330 -0.054363     48.000000
  0.271813 -0.163088 -0.018121     48.000000
  0.235572 -0.126846  0.018121     48.000000
  0.054363  0.054363 -0.308055     24.000000
  0.018121  0.090604 -0.271813     48.000000
  0.054363  0.054363 -0.235572     24.000000
  0.090604  0.090604  0.090604      8.000000
  0.054363  0.126846  0.126846     24.000000
  0.308055 -0.126846 -0.126846     24.000000
  0.271813 -0.090604 -0.090604     24.000000
  0.090604  0.090604  0.163088     24.000000
  0.344297 -0.163088 -0.090604     48.000000
  0.308055 -0.126846 -0.054363     48.000000
  0.090604  0.090604 -0.344297     24.000000
  0.126846  0.126846  0.126846      8.000000
  0.380539 -0.126846 -0.126846     24.000000

 SYSTEM =  Co-fcc
 POSCAR =  Co

 Startparameter for this run:
   NWRITE =      2    write-flag & timer
   PREC   = accura    normal or accurate (medium, high low for compatibility)
   ISTART =      0    job   : 0-new  1-cont  2-samecut
   ICHARG =      2    charge: 1-file 2-atom 10-const
   ISPIN  =      2    spin polarized calculation?
   LNONCOLLINEAR =      F non collinear calculations
   LSORBIT =      F    spin-orbit coupling
   INIWAV =      1    electr: 0-lowe 1-rand  2-diag
   LASPH  =      F    aspherical Exc in radial PAW
 Electronic Relaxation 1
   ENCUT  =  400.0 eV  29.40 Ry    5.42 a.u.   3.98  3.98  3.98*2*pi/ulx,y,z
   ENINI  =  400.0     initial cutoff
   ENAUG  =  477.8 eV  augmentation charge cutoff
   NELM   =    100;   NELMIN=  2; NELMDL= -5     # of ELM steps
   EDIFF  = 0.1E-05   stopping-criterion for ELM
   LREAL  =      F    real-space projection
   NLSPLINE    = F    spline interpolate recip. space projectors
[...]
   0.05436269  0.05436269  0.19932985       0.012
   0.30805522 -0.19932985 -0.05436269       0.023
   0.27181343 -0.16308806 -0.01812090       0.023
   0.23557164 -0.12684627  0.01812090       0.023
   0.05436269  0.05436269 -0.30805522       0.012
   0.01812090  0.09060448 -0.27181343       0.023
   0.05436269  0.05436269 -0.23557164       0.012
   0.09060448  0.09060448  0.09060448       0.004
   0.05436269  0.12684627  0.12684627       0.012
   0.30805522 -0.12684627 -0.12684627       0.012
   0.27181343 -0.09060448 -0.09060448       0.012
   0.09060448  0.09060448  0.16308806       0.012
   0.34429701 -0.16308806 -0.09060448       0.023
   0.30805522 -0.12684627 -0.05436269       0.023
   0.09060448  0.09060448 -0.34429701       0.012
   0.12684627  0.12684627  0.12684627       0.004
   0.38053880 -0.12684627 -0.12684627       0.012

 k-points in reciprocal lattice and weights: Automatic mesh
   0.06250000  0.06250000  0.06250000       0.004
   0.18750000  0.06250000  0.06250000       0.012
   0.31250000  0.06250000  0.06250000       0.012
   0.43750000  0.06250000  0.06250000       0.012
  -0.43750000  0.06250000  0.06250000       0.012
  -0.31250000  0.06250000  0.06250000       0.012
  -0.18750000  0.06250000  0.06250000       0.012
  -0.06250000  0.06250000  0.06250000       0.012
   0.18750000  0.18750000  0.06250000       0.012
   0.31250000  0.18750000  0.06250000       0.023
   0.43750000  0.18750000  0.06250000       0.023
  -0.43750000  0.18750000  0.06250000       0.023
  -0.31250000  0.18750000  0.06250000       0.023
  -0.18750000  0.18750000  0.06250000       0.023
  -0.06250000  0.18750000  0.06250000       0.023
   0.31250000  0.31250000  0.06250000       0.012
   0.43750000  0.31250000  0.06250000       0.023
  -0.43750000  0.31250000  0.06250000       0.023
  -0.31250000  0.31250000  0.06250000       0.023
  -0.18750000  0.31250000  0.06250000       0.023
  -0.06250000  0.31250000  0.06250000       0.023
   0.43750000  0.43750000  0.06250000       0.012
  -0.43750000  0.43750000  0.06250000       0.023
  -0.31250000  0.43750000  0.06250000       0.023
  -0.18750000  0.43750000  0.06250000       0.023
  -0.06250000  0.43750000  0.06250000       0.023
  -0.43750000 -0.43750000  0.06250000       0.012
  -0.31250000 -0.43750000  0.06250000       0.023
  -0.18750000 -0.43750000  0.06250000       0.023
  -0.31250000 -0.31250000  0.06250000       0.012
  -0.18750000 -0.31250000  0.06250000       0.023
  -0.18750000 -0.18750000  0.06250000       0.012
   0.18750000  0.18750000  0.18750000       0.004
   0.31250000  0.18750000  0.18750000       0.012
   0.43750000  0.18750000  0.18750000       0.012
  -0.43750000  0.18750000  0.18750000       0.012
  -0.31250000  0.18750000  0.18750000       0.012
  -0.18750000  0.18750000  0.18750000       0.012
   0.31250000  0.31250000  0.18750000       0.012
   0.43750000  0.31250000  0.18750000       0.023
  -0.43750000  0.31250000  0.18750000       0.023
  -0.31250000  0.31250000  0.18750000       0.023
  -0.18750000  0.31250000  0.18750000       0.023
   0.43750000  0.43750000  0.18750000       0.012
  -0.43750000  0.43750000  0.18750000       0.023
  -0.31250000  0.43750000  0.18750000       0.023
  -0.18750000  0.43750000  0.18750000       0.023
  -0.43750000 -0.43750000  0.18750000       0.012
  -0.31250000 -0.43750000  0.18750000       0.023
  -0.31250000 -0.31250000  0.18750000       0.012
   0.31250000  0.31250000  0.31250000       0.004
   0.43750000  0.31250000  0.31250000       0.012
  -0.43750000  0.31250000  0.31250000       0.012
  -0.31250000  0.31250000  0.31250000       0.012
   0.43750000  0.43750000  0.31250000       0.012
  -0.43750000  0.43750000  0.31250000       0.023
  -0.31250000  0.43750000  0.31250000       0.023
  -0.43750000 -0.43750000  0.31250000       0.012
   0.43750000  0.43750000  0.43750000       0.004
  -0.43750000  0.43750000  0.43750000       0.012

 position of ions in fractional coordinates (direct lattice)
   0.00000000  0.00000000  0.00000000

 position of ions in cartesian coordinates  (Angst):
   0.00000000  0.00000000  0.00000000

 k-point   1 :   0.0625 0.0625 0.0625  plane waves:     172
 k-point   2 :   0.1875 0.0625 0.0625  plane waves:     174
 k-point   3 :   0.3125 0.0625 0.0625  plane waves:     186
 k-point   4 :   0.4375 0.0625 0.0625  plane waves:     186
 k-point   5 :  -0.4375 0.0625 0.0625  plane waves:     179
 k-point   6 :  -0.3125 0.0625 0.0625  plane waves:     184
 k-point   7 :  -0.1875 0.0625 0.0625  plane waves:     184
 k-point   8 :  -0.0625 0.0625 0.0625  plane waves:     174
 k-point   9 :   0.1875 0.1875 0.0625  plane waves:     176
 k-point  10 :   0.3125 0.1875 0.0625  plane waves:     186
 k-point  11 :   0.4375 0.1875 0.0625  plane waves:     187
 k-point  12 :  -0.4375 0.1875 0.0625  plane waves:     185
 k-point  13 :  -0.3125 0.1875 0.0625  plane waves:     186
 k-point  14 :  -0.1875 0.1875 0.0625  plane waves:     186
 k-point  15 :  -0.0625 0.1875 0.0625  plane waves:     180
 k-point  16 :   0.3125 0.3125 0.0625  plane waves:     187
 k-point  17 :   0.4375 0.3125 0.0625  plane waves:     188
 k-point  18 :  -0.4375 0.3125 0.0625  plane waves:     185
 k-point  19 :  -0.3125 0.3125 0.0625  plane waves:     184
 k-point  20 :  -0.1875 0.3125 0.0625  plane waves:     187
 k-point  21 :  -0.0625 0.3125 0.0625  plane waves:     187
 k-point  22 :   0.4375 0.4375 0.0625  plane waves:     193
 k-point  23 :  -0.4375 0.4375 0.0625  plane waves:     190
 k-point  24 :  -0.3125 0.4375 0.0625  plane waves:     186
 k-point  25 :  -0.1875 0.4375 0.0625  plane waves:     184
 k-point  26 :  -0.0625 0.4375 0.0625  plane waves:     185
 k-point  27 :  -0.4375-0.4375 0.0625  plane waves:     190
 k-point  28 :  -0.3125-0.4375 0.0625  plane waves:     190
 k-point  29 :  -0.1875-0.4375 0.0625  plane waves:     189
 k-point  30 :  -0.3125-0.3125 0.0625  plane waves:     188
 k-point  31 :  -0.1875-0.3125 0.0625  plane waves:     186
 k-point  32 :  -0.1875-0.1875 0.0625  plane waves:     182
 k-point  33 :   0.1875 0.1875 0.1875  plane waves:     172
 k-point  34 :   0.3125 0.1875 0.1875  plane waves:     182
 k-point  35 :   0.4375 0.1875 0.1875  plane waves:     186
 k-point  36 :  -0.4375 0.1875 0.1875  plane waves:     183
 k-point  37 :  -0.3125 0.1875 0.1875  plane waves:     186
 k-point  38 :  -0.1875 0.1875 0.1875  plane waves:     189
 k-point  39 :   0.3125 0.3125 0.1875  plane waves:     184
 k-point  40 :   0.4375 0.3125 0.1875  plane waves:     186
 k-point  41 :  -0.4375 0.3125 0.1875  plane waves:     189
 k-point  42 :  -0.3125 0.3125 0.1875  plane waves:     187
 k-point  43 :  -0.1875 0.3125 0.1875  plane waves:     189
 k-point  44 :   0.4375 0.4375 0.1875  plane waves:     189
 k-point  45 :  -0.4375 0.4375 0.1875  plane waves:     191
 k-point  46 :  -0.3125 0.4375 0.1875  plane waves:     191
 k-point  47 :  -0.1875 0.4375 0.1875  plane waves:     192
 k-point  48 :  -0.4375-0.4375 0.1875  plane waves:     188
 k-point  49 :  -0.3125-0.4375 0.1875  plane waves:     194
 k-point  50 :  -0.3125-0.3125 0.1875  plane waves:     190
 k-point  51 :   0.3125 0.3125 0.3125  plane waves:     183
 k-point  52 :   0.4375 0.3125 0.3125  plane waves:     187
 k-point  53 :  -0.4375 0.3125 0.3125  plane waves:     184
 k-point  54 :  -0.3125 0.3125 0.3125  plane waves:     186
 k-point  55 :   0.4375 0.4375 0.3125  plane waves:     185
 k-point  56 :  -0.4375 0.4375 0.3125  plane waves:     188
 k-point  57 :  -0.3125 0.4375 0.3125  plane waves:     191
 k-point  58 :  -0.4375-0.4375 0.3125  plane waves:     184
 k-point  59 :   0.4375 0.4375 0.4375  plane waves:     183
 k-point  60 :  -0.4375 0.4375 0.4375  plane waves:     182

 maximum and minimum number of plane-waves per node :        36       24

 maximum number of plane-waves:       194
 maximum index in each direction:
   IXMAX=    4   IYMAX=    4   IZMAX=    3
   IXMIN=   -4   IYMIN=   -4   IZMIN=   -4

 parallel 3D FFT for wavefunctions:
    minimum data exchange during FFTs selected (reduces bandwidth)
 parallel 3D FFT for charge:
    minimum data exchange during FFTs selected (reduces bandwidth)

 Broyden mixing: mesh for mixing (old mesh)
   NGX =  7   NGY =  7   NGZ =  7
  (NGX  = 32   NGY  = 32   NGZ  = 32)
  gives a total of    343 points

 initial charge density was supplied:
 charge density of overlapping atoms calculated
 number of electron       9.0000000 magnetization       3.0000000
 keeping initial charge density in first step

 Maximum index for augmentation-charges         1207 (set IRDMAX)

 First call to EWALD:  gamma=   0.816
 Maximum number of real-space cells 3x 3x 3
 Maximum number of reciprocal cells 3x 3x 3

--------------------------------------- Iteration      1(   1)  ---------------------------------------

 eigenvalue-minimisations  :  2964
 total energy-change (2. order) : 0.2325769E+02  (-0.3541356E+03)
 number of electron       9.0000000 magnetization       3.0000000
 augmentation part        9.0000000 magnetization       3.0000000

 Free energy of the ion-electron system (eV)
  alpha Z        PSCENC =        41.29440197
  Ewald energy   TEWEN  =      -775.24149299
  -Hartree energ DENC   =      -144.03482818
  -exchange      EXHF   =         0.00000000
  -V(xc)+E(xc)   XCENC  =        18.00124074
  PAW double counting   =       719.99081943     -772.94345096
  entropy T*S    EENTRO =        -0.00156573
  eigenvalues    EBANDS =       122.83483114
  atomic energy  EATOM  =       813.35773410
  Solvation  Ediel_sol  =         0.00000000
  free energy    TOTEN  =        23.25768952 eV

  energy without entropy =       23.25925525  energy(sigma->0) =       23.25847238

[...]

 eigenvalue-minimisations  :  3152
 total energy-change (2. order) :-0.3020916E+02  (-0.2820221E+02)
 number of electron       9.0000000 magnetization       3.0000000
 augmentation part        9.0000000 magnetization       3.0000000

[...]

 Broyden mixing:
  rms(total) = 0.12098E+01    rms(broyden)= 0.12098E+01
  rms(prec ) = 0.32315E+01
  weight for this iteration     100.00

[...]

 eigenvalues of (default mixing * dielectric matrix)
  average eigenvalue GAMMA=   0.9371
  0.9371

[...]

 eigenvalue-minimisations  :  4056
 total energy-change (2. order) : 0.5314066E-03  (-0.3111801E-04)
 number of electron       8.9999994 magnetization       1.5701897
 augmentation part        5.1190493 magnetization       1.4110252

[...]

 Broyden mixing:
  rms(total) = 0.23235E-02    rms(broyden)= 0.23234E-02
  rms(prec ) = 0.28415E-02
  weight for this iteration     100.00

 eigenvalues of (default mixing * dielectric matrix)
  average eigenvalue GAMMA=   1.2241
  2.3770  1.8375  0.9829  0.6275  0.7598  0.7598

[...]

--------------------------------------- Iteration      1(  12)  ---------------------------------------

 eigenvalue-minimisations  :  3480
 total energy-change (2. order) :-0.4295849E-06  (-0.3017565E-06)
 number of electron       8.9999994 magnetization       1.5705788
 augmentation part        5.1192627 magnetization       1.4111515

 Free energy of the ion-electron system (eV)
  alpha Z        PSCENC =        41.29440197
  Ewald energy   TEWEN  =      -775.24149299
  -Hartree energ DENC   =      -126.42855366
  -exchange      EXHF   =         0.00000000
  -V(xc)+E(xc)   XCENC  =        16.56281015
  PAW double counting   =       936.03421315     -989.31711113
  entropy T*S    EENTRO =        -0.00112370
  eigenvalues    EBANDS =        76.74240994
  atomic energy  EATOM  =       813.35773410
  Solvation  Ediel_sol  =         0.00000000
  free energy    TOTEN  =        -6.99671218 eV

  energy without entropy =       -6.99558848  energy(sigma->0) =       -6.99615033

 average (electrostatic) potential at core
  the test charge radii are     1.0452
  (the norm of the test charge is              1.0000)
       1 -77.5156

 E-fermi :  11.1366     XC(G=0): -13.7397     alpha+bet :-18.7516

 Fermi energy:        11.1365595232

 spin component 1

 k-point     1 :       0.0625    0.0625    0.0625
  band No.  band energies     occupation
      1       1.9877      1.00000
      2       8.3245      1.00000
      3       8.4134      1.00000
      4       8.4134      1.00000
      5       9.5456      1.00000
      6       9.5456      1.00000
      7      34.3847      0.00000
      8      37.6609      0.00000
      9      39.2278      0.00000
     10      39.2278      0.00000
     11      43.3383      0.00000
     12      43.3384      0.00000

[...]

 k-point    60 :      -0.4375    0.4375    0.4375
  band No.  band energies     occupation
      1       6.0596      1.00000
      2       7.9496      1.00000
      3       8.5087      1.00000
      4       9.0431      1.00000
      5      10.4218      1.00000
      6      12.8613      0.00000
      7      18.0344      0.00000
      8      30.5427      0.00000
      9      34.7374      0.00000
     10      34.8554      0.00000
     11      42.7198      0.00000
     12      43.1556      0.00000
 Fermi energy:        11.1365595232

 spin component 2

[...]

 k-point    60 :      -0.4375    0.4375    0.4375
  band No.  band energies     occupation
      1       6.9825      1.00000
      2       9.3711      1.00000
      3      10.0256      1.00000
      4      10.1546      1.00000
      5      12.2493      0.00000
      6      13.8564      0.00000
      7      18.9639      0.00000
      8      30.6961      0.00000
      9      34.9622      0.00000
     10      35.0679      0.00000
     11      42.9755      0.00000
     12      43.3185      0.00000

 soft charge-density along one line, spin component           1
         0         1         2         3         4         5         6         7         8         9
 total charge-density along one line

 soft charge-density along one line, spin component           2
         0         1         2         3         4         5         6         7         8         9
 total charge-density along one line

------------------------ aborting loop because EDIFF is reached ----------------------------------------

 total charge

# of ion       s       p       d       tot
    1        0.514   0.574   7.296   8.385

 magnetization (x)

[...]

  FORCE on cell =-STRESS in cart. coord.  units (eV):
  Direction    XX          YY          ZZ          XY          YZ          ZX
  Alpha Z    41.29440    41.29440    41.29440
  Ewald    -258.41384  -258.41384  -258.41384    -0.00000     0.00000    -0.00000
  Hartree    42.14285    42.14285    42.14285     0.00000     0.00000     0.00000
  E(xc)     -46.45683   -46.45683   -46.45683     0.00000     0.00000     0.00000
  Local      -5.78086    -5.78086    -5.78086     0.00005     0.00005     0.00005
  n-local    -3.39201    -2.44122    -5.71320     1.92521    -2.13177    -0.05281
  augment   155.16197   155.16197   155.16197    -0.00006    -0.00006    -0.00006
  Kinetic    75.89051    75.36341    78.90042    -0.73248     0.74288    -0.12491
  Fock        0.00000     0.00000     0.00000     0.00000     0.00000     0.00000
  Total       0.81701     0.81701     0.81701    -0.00000    -0.00000    -0.00000
  in kB     127.61330   127.61330   127.61330    -0.00000    -0.00000    -0.00000

 VOLUME and BASIS-vectors are now :
  energy-cutoff  :      400.00
  volume of cell :       10.26
      direct lattice vectors                 reciprocal lattice vectors
     0.000000000  1.724528463  1.724528463    -0.289934327  0.289934327  0.289934327
     1.724528463  0.000000000  1.724528463     0.289934327 -0.289934327  0.289934327
     1.724528463  1.724528463  0.000000000     0.289934327  0.289934327 -0.289934327

  length of vectors
     2.438851541  2.438851541  2.438851541     0.502180986  0.502180986  0.502180986

 FORCES acting on ions
    electron-ion (+dipol)            ewald-force                    non-local-force                 convergence-correction
   0.962E-16 0.920E-15 0.169E-16   0.446E-15 0.379E-15 0.148E-14   0.000E+00 0.124E-23 -.414E-24   0.142E-13 0.732E-14 -.536E-14
   0.962E-16 0.920E-15 0.169E-16   0.446E-15 0.379E-15 0.148E-14   0.000E+00 0.124E-23 -.414E-24   0.142E-13 0.732E-14 -.536E-14

 POSITION                                       TOTAL-FORCE (eV/Angst)
      0.00000      0.00000      0.00000         0.000000     -0.000000     -0.000000
    total drift:                                0.000000      0.000000     -0.000000

  FREE ENERGIE OF THE ION-ELECTRON SYSTEM (eV)
  free  energy   TOTEN  =        -6.99671218 eV

  energy  without entropy=       -6.99558848  energy(sigma->0) =       -6.99615033

 reached required accuracy - stopping structural energy minimisation
 writing wavefunctions

 total charge

[...]

 magnetization (x)

# of ion       s       p       d       tot
    1       -0.014  -0.052   1.644   1.578