 vasp.6.3.2 27Jun22 (build Aug 12 2022 00:53:59) complex

 executed on               tv2STD date 2024.11.30  15:36:17

 INCAR:
   SYSTEM = Co-hcc
   NWRITE = 2    write-flag
   ISTART = 0    job   : 0-new, 1-cont, 2-samecut
   ICHARG = 2    charge: 0-wave, 1-file, 2-atom, >10-const
   INIWAV = 1    electr: 0-lowe 1-rand  2-diag
   ENCUT = 400     energy cutoff in eV
   PREC = Accurate      normal | accurate
   ADDGRID = .FALSE.  (use fine grid)
   NELM = 100     number of ELM steps
   EDIFF = 1E-06    energy stopping-criterion for ELM
   LREAL = .F.      real-space projection (.FALSE., .TRUE., On, Auto)
   ALGO = Normal     Normal, Fast, Very_Fast
   LWAVE = .FALSE.
   LCHARG = .FALSE.
   NSW = 0       max number of geometry steps
   IBRION = -1     ionic relax: 0-MD, 1-quasi-Newton, 2-CG, 3-Damped MD
   EDIFFG = -0.02  force (eV/A) stopping-criterion for geometry steps
   ISIF = 2     (1:force\=y stress\=trace only ions\=y shape\=n volume\=n)
   ISYM = 1     (1-use symmetry, 0-no symmetry)
   ISMEAR = 0     (-1-Fermi, 1-Methfessel/Paxton)
   SIGMA = 0.05   broadening in eV
   NPAR = 4
   ISPIN = 2
   MAGMOM = 2*3

 POTCAR:    PAW_PBE Co 02Aug2007
 POTCAR:    PAW_PBE Co 02Aug2007
   VRHFIN =Co: d8 s1

   TITEL  = PAW_PBE Co 02Aug2007
   POMASS =   58.933; ZVAL   =    9.000    mass and valenz
   ENMAX  =  267.968; ENMIN  =  200.976 eV

  PAW_PBE Co 02Aug2007                  :

 POSCAR: Co
  positions in cartesian coordinates
 exchange correlation table for  LEXCH =        8
   RHO(1)=    0.500       N(1)  =     2000
   RHO(2)=  100.500       N(2)  =     4000

 ion  position               nearest neighbor table
   1  0.000  0.000  0.000-
   2  0.333  0.667  0.500-

  LATTYP: Found a hexagonal cell.
 ALAT       =     2.4700000000
 C/A-ratio  =     3.2753036437

  Lattice vectors:

 A1 = (   2.4700000000,   0.0000000000,   0.0000000000)
 A2 = (  -1.2350000000,   2.1390827473,   0.0000000000)
 A3 = (   0.0000000000,   0.0000000000,   8.0900000000)

Analysis of symmetry for initial positions (statically):
 Subroutine PRICEL returns:
 Original cell was already a primitive cell.

 Routine SETGRP: Setting up the symmetry group for a
 hexagonal supercell.

 Subroutine GETGRP returns: Found 24 space group operations
 (whereof 12 operations were pure point group operations)
 out of a pool of 24 trial point group operations.

The static configuration has the point symmetry D_3h.
 The point group associated with its full space group is D_6h.

Analysis of symmetry for dynamics (positions and initial velocities):
 Subroutine PRICEL returns:
 Original cell was already a primitive cell.

[...]

The dynamic configuration has the point symmetry D_3h.
 The point group associated with its full space group is D_6h.

Analysis of structural, dynamic, and magnetic symmetry:
 Subroutine PRICEL returns:
 Original cell was already a primitive cell.

 Routine SETGRP: Setting up the symmetry group for a
 hexagonal supercell.

 Subroutine GETGRP returns: Found 24 space group operations
 (whereof 12 operations were pure point group operations)
 out of a pool of 24 trial point group operations.

The overall configuration has the point symmetry D_3h.
 The point group associated with its full space group is D_6h.

 Subroutine INISYM returns: Found 24 space group operations
 (whereof 12 operations are pure point group operations),
 and found     1 'primitive' translations

                                     Primitive cell

  volume of cell :      42.7438

  direct lattice vectors                    reciprocal lattice vectors
     2.470000000  0.000000000  0.000000000     0.404858300  0.233745048  0.000000000
    -1.235000000  2.139082747  0.000000000     0.000000000  0.467490097  0.000000000
     0.000000000  0.000000000  8.090000000     0.000000000  0.000000000  0.123609394

  length of vectors
     2.470000000  2.470000000  8.090000000     0.467490097  0.467490097  0.123609394

  position of ions in fractional coordinates (direct lattice)
     0.000000000  0.000000000  0.000000000
     0.333333333  0.666666667  0.500000000

  ion indices of the primitive-cell ions
   primitive index   ion index
                 1           1
                 2           2

 KPOINTS: Automatic mesh

Automatic generation of k-mesh.
 Grid dimensions read from file:
 generate k-points for:   14   14   10

 Generating k-lattice:

  Cartesian coordinates                     Fractional coordinates (reciprocal lattice)
     0.028918450  0.016696075  0.000000000     0.071428571 -0.000000000  0.000000000
     0.000000000  0.033392150  0.000000000     0.000000000  0.071428571  0.000000000
     0.000000000  0.000000000  0.012360939     0.000000000  0.000000000  0.100000000

  Length of vectors
     0.033392150  0.033392150  0.012360939

  Shift w.r.t. Gamma in fractional coordinates (k-lattice)
     0.000000000  0.000000000  0.000000000

 Subroutine IBZKPT returns following result:

 Found    144 irreducible k-points:

 Following reciprocal coordinates:
            Coordinates               Weight
  0.000000  0.000000  0.000000      1.000000
  0.071429 -0.000000  0.000000      6.000000
  0.142857  0.000000  0.000000      6.000000
  0.214286  0.000000  0.000000      6.000000
  0.285714  0.000000  0.000000      6.000000
  0.357143  0.000000  0.000000      6.000000
  0.428571  0.000000  0.000000      6.000000
  0.500000  0.000000  0.000000      3.000000
  0.071429  0.071429  0.000000      6.000000
  0.142857  0.071429  0.000000     12.000000
  0.214286  0.071429  0.000000     12.000000
  0.285714  0.071429  0.000000     12.000000
  0.357143  0.071429  0.000000     12.000000
  0.428571  0.071429  0.000000     12.000000
  0.142857  0.142857  0.000000      6.000000
  0.214286  0.142857  0.000000     12.000000
  0.285714  0.142857  0.000000     12.000000
  0.357143  0.142857  0.000000     12.000000
  0.428571  0.142857  0.000000      6.000000
  0.214286  0.214286  0.000000      6.000000
  0.285714  0.214286  0.000000     12.000000
  0.357143  0.214286  0.000000     12.000000
  0.285714  0.285714  0.000000      6.000000
  0.357143  0.285714  0.000000      6.000000
  0.000000  0.000000  0.100000      2.000000
  0.071429 -0.000000  0.100000     12.000000
  0.142857  0.000000  0.100000     12.000000
  0.214286  0.000000  0.100000     12.000000
  0.285714  0.000000  0.100000     12.000000
  0.357143  0.000000  0.100000     12.000000
  0.428571  0.000000  0.100000     12.000000
  0.500000  0.000000  0.100000      6.000000
  0.071429  0.071429  0.100000     12.000000
  0.142857  0.071429  0.100000     24.000000
  0.214286  0.071429  0.100000     24.000000
  0.285714  0.071429  0.100000     24.000000
  0.357143  0.071429  0.100000     24.000000
  0.428571  0.071429  0.100000     24.000000
  0.142857  0.142857  0.100000     12.000000
  0.214286  0.142857  0.100000     24.000000
  0.285714  0.142857  0.100000     24.000000
  0.357143  0.142857  0.100000     24.000000
  0.428571  0.142857  0.100000     12.000000
  0.214286  0.214286  0.100000     12.000000
  0.285714  0.214286  0.100000     24.000000
  0.357143  0.214286  0.100000     24.000000
  0.285714  0.285714  0.100000     12.000000
  0.357143  0.285714  0.100000     12.000000
  0.000000  0.000000  0.200000      2.000000
  0.071429 -0.000000  0.200000     12.000000
  0.142857  0.000000  0.200000     12.000000
  0.214286  0.000000  0.200000     12.000000
  0.285714  0.000000  0.200000     12.000000
  0.357143  0.000000  0.200000     12.000000
  0.428571  0.000000  0.200000     12.000000
  0.500000  0.000000  0.200000      6.000000
  0.071429  0.071429  0.200000     12.000000
  0.142857  0.071429  0.200000     24.000000
  0.214286  0.071429  0.200000     24.000000
  0.285714  0.071429  0.200000     24.000000
[...]
  0.142857  0.071429  0.500000     12.000000
  0.214286  0.071429  0.500000     12.000000
  0.285714  0.071429  0.500000     12.000000
  0.357143  0.071429  0.500000     12.000000
  0.428571  0.071429  0.500000     12.000000
  0.142857  0.142857  0.500000      6.000000
  0.214286  0.142857  0.500000     12.000000
  0.285714  0.142857  0.500000     12.000000
  0.357143  0.142857  0.500000     12.000000
  0.428571  0.142857  0.500000      6.000000
  0.214286  0.214286  0.500000      6.000000
  0.285714  0.214286  0.500000     12.000000
  0.357143  0.214286  0.500000     12.000000
  0.285714  0.285714  0.500000      6.000000
  0.357143  0.285714  0.500000      6.000000

 Following cartesian coordinates:
            Coordinates               Weight
  0.000000  0.000000  0.000000      1.000000
  0.028918  0.016696  0.000000      6.000000
  0.057837  0.033392  0.000000      6.000000
  0.086755  0.050088  0.000000      6.000000
  0.115674  0.066784  0.000000      6.000000
  0.144592  0.083480  0.000000      6.000000
  0.173511  0.100176  0.000000      6.000000
  0.202429  0.116873  0.000000      3.000000
  0.028918  0.050088  0.000000      6.000000
  0.057837  0.066784  0.000000     12.000000
  0.086755  0.083480  0.000000     12.000000
  0.115674  0.100176  0.000000     12.000000
  0.144592  0.116873  0.000000     12.000000
  0.173511  0.133569  0.000000     12.000000
  0.057837  0.100176  0.000000      6.000000
  0.086755  0.116873  0.000000     12.000000
  0.115674  0.133569  0.000000     12.000000
  0.144592  0.150265  0.000000     12.000000
  0.173511  0.166961  0.000000      6.000000
  0.086755  0.150265  0.000000      6.000000
  0.115674  0.166961  0.000000     12.000000
  0.144592  0.183657  0.000000     12.000000
  0.115674  0.200353  0.000000      6.000000
  0.144592  0.217049  0.000000      6.000000
  0.000000  0.000000  0.012361      2.000000
  0.028918  0.016696  0.012361     12.000000
  0.057837  0.033392  0.012361     12.000000
  0.086755  0.050088  0.012361     12.000000
  0.115674  0.066784  0.012361     12.000000
  0.144592  0.083480  0.012361     12.000000
  0.173511  0.100176  0.012361     12.000000
  0.202429  0.116873  0.012361      6.000000
  0.028918  0.050088  0.012361     12.000000
  0.057837  0.066784  0.012361     24.000000
  0.086755  0.083480  0.012361     24.000000
  0.115674  0.100176  0.012361     24.000000
  0.144592  0.116873  0.012361     24.000000
  0.173511  0.133569  0.012361     24.000000
  0.057837  0.100176  0.012361     12.000000
  0.086755  0.116873  0.012361     24.000000
  0.115674  0.133569  0.012361     24.000000
  0.144592  0.150265  0.012361     24.000000
  0.173511  0.166961  0.012361     12.000000
  0.086755  0.150265  0.012361     12.000000
  0.115674  0.166961  0.012361     24.000000
  0.144592  0.183657  0.012361     24.000000
  0.115674  0.200353  0.012361     12.000000
  0.144592  0.217049  0.012361     12.000000
  0.000000  0.000000  0.024722      2.000000
  0.028918  0.016696  0.024722     12.000000
  0.057837  0.033392  0.024722     12.000000
  0.086755  0.050088  0.024722     12.000000
  0.115674  0.066784  0.024722     12.000000
  0.144592  0.083480  0.024722     12.000000
  0.173511  0.100176  0.024722     12.000000
  0.202429  0.116873  0.024722      6.000000
  0.028918  0.050088  0.024722     12.000000
  0.057837  0.066784  0.024722     24.000000
  0.086755  0.083480  0.024722     24.000000
  0.115674  0.100176  0.024722     24.000000
[...]
[...]
   0.28571429  0.28571429  0.00000000       0.003
   0.35714286  0.28571429  0.00000000       0.003
   0.00000000  0.00000000  0.10000000       0.001
   0.07142857 -0.00000000  0.10000000       0.006
   0.14285714  0.00000000  0.10000000       0.006
   0.21428571  0.00000000  0.10000000       0.006
   0.28571429  0.00000000  0.10000000       0.006
   0.35714286  0.00000000  0.10000000       0.006
   0.42857143  0.00000000  0.10000000       0.006
   0.50000000  0.00000000  0.10000000       0.003
   0.07142857  0.07142857  0.10000000       0.006
   0.14285714  0.07142857  0.10000000       0.012
   0.21428571  0.07142857  0.10000000       0.012
   0.28571429  0.07142857  0.10000000       0.012
   0.35714286  0.07142857  0.10000000       0.012
   0.42857143  0.07142857  0.10000000       0.012
   0.14285714  0.14285714  0.10000000       0.006
   0.21428571  0.14285714  0.10000000       0.012
   0.28571429  0.14285714  0.10000000       0.012
   0.35714286  0.14285714  0.10000000       0.012
   0.42857143  0.14285714  0.10000000       0.006
   0.21428571  0.21428571  0.10000000       0.006
   0.28571429  0.21428571  0.10000000       0.012
   0.35714286  0.21428571  0.10000000       0.012
   0.28571429  0.28571429  0.10000000       0.006
   0.35714286  0.28571429  0.10000000       0.006
   0.00000000  0.00000000  0.20000000       0.001
   0.07142857 -0.00000000  0.20000000       0.006
   0.14285714  0.00000000  0.20000000       0.006
   0.21428571  0.00000000  0.20000000       0.006
   0.28571429  0.00000000  0.20000000       0.006
   0.35714286  0.00000000  0.20000000       0.006
   0.42857143  0.00000000  0.20000000       0.006
   0.50000000  0.00000000  0.20000000       0.003
   0.07142857  0.07142857  0.20000000       0.006
   0.14285714  0.07142857  0.20000000       0.012
   0.21428571  0.07142857  0.20000000       0.012
   0.28571429  0.07142857  0.20000000       0.012
[...]
   0.14285714  0.07142857  0.50000000       0.006
   0.21428571  0.07142857  0.50000000       0.006
   0.28571429  0.07142857  0.50000000       0.006
   0.35714286  0.07142857  0.50000000       0.006
   0.42857143  0.07142857  0.50000000       0.006
   0.14285714  0.14285714  0.50000000       0.003
   0.21428571  0.14285714  0.50000000       0.006
   0.28571429  0.14285714  0.50000000       0.006
   0.35714286  0.14285714  0.50000000       0.006
   0.42857143  0.14285714  0.50000000       0.003
   0.21428571  0.21428571  0.50000000       0.003
   0.28571429  0.21428571  0.50000000       0.006
   0.35714286  0.21428571  0.50000000       0.006
   0.28571429  0.28571429  0.50000000       0.003
   0.35714286  0.28571429  0.50000000       0.003

 position of ions in fractional coordinates (direct lattice)
   0.00000000  0.00000000  0.00000000
   0.33333333  0.66666667  0.50000000

 position of ions in cartesian coordinates  (Angst):
   0.00000000  0.00000000  0.00000000
   0.00000000  1.42605516  4.04500000

 k-point   1 :   0.0000 0.0000 0.0000  plane waves:     741
 k-point   2 :   0.0714-0.0000 0.0000  plane waves:     741
 k-point   3 :   0.1429 0.0000 0.0000  plane waves:     759
 k-point   4 :   0.2143 0.0000 0.0000  plane waves:     769
 k-point   5 :   0.2857 0.0000 0.0000  plane waves:     775
 k-point   6 :   0.3571 0.0000 0.0000  plane waves:     777
 k-point   7 :   0.4286 0.0000 0.0000  plane waves:     783
 k-point   8 :   0.5000 0.0000 0.0000  plane waves:     766
 k-point   9 :   0.0714 0.0714 0.0000  plane waves:     750
 k-point  10 :   0.1429 0.0714 0.0000  plane waves:     761
 k-point  11 :   0.2143 0.0714 0.0000  plane waves:     775
 k-point  12 :   0.2857 0.0714 0.0000  plane waves:     783
 k-point  13 :   0.3571 0.0714 0.0000  plane waves:     789
 k-point  14 :   0.4286 0.0714 0.0000  plane waves:     793
 k-point  15 :   0.1429 0.1429 0.0000  plane waves:     774
 k-point  16 :   0.2143 0.1429 0.0000  plane waves:     780
 k-point  17 :   0.2857 0.1429 0.0000  plane waves:     783
 k-point  18 :   0.3571 0.1429 0.0000  plane waves:     791
 k-point  19 :   0.4286 0.1429 0.0000  plane waves:     790
 k-point  20 :   0.2143 0.2143 0.0000  plane waves:     774
 k-point  21 :   0.2857 0.2143 0.0000  plane waves:     778
 k-point  22 :   0.3571 0.2143 0.0000  plane waves:     779
 k-point  23 :   0.2857 0.2857 0.0000  plane waves:     770
 k-point  24 :   0.3571 0.2857 0.0000  plane waves:     776
 k-point  25 :   0.0000 0.0000 0.1000  plane waves:     741
 k-point  26 :   0.0714-0.0000 0.1000  plane waves:     746
 k-point  27 :   0.1429 0.0000 0.1000  plane waves:     759
 k-point  28 :   0.2143 0.0000 0.1000  plane waves:     770
 k-point  29 :   0.2857 0.0000 0.1000  plane waves:     779
 k-point  30 :   0.3571 0.0000 0.1000  plane waves:     776
 k-point  31 :   0.4286 0.0000 0.1000  plane waves:     773
 k-point  32 :   0.5000 0.0000 0.1000  plane waves:     774
 k-point  33 :   0.0714 0.0714 0.1000  plane waves:     750
 k-point  34 :   0.1429 0.0714 0.1000  plane waves:     764
 k-point  35 :   0.2143 0.0714 0.1000  plane waves:     774
 k-point  36 :   0.2857 0.0714 0.1000  plane waves:     781
 k-point  37 :   0.3571 0.0714 0.1000  plane waves:     781
 k-point  38 :   0.4286 0.0714 0.1000  plane waves:     785
 k-point  39 :   0.1429 0.1429 0.1000  plane waves:     777
 k-point  40 :   0.2143 0.1429 0.1000  plane waves:     776
 k-point  41 :   0.2857 0.1429 0.1000  plane waves:     784
 k-point  42 :   0.3571 0.1429 0.1000  plane waves:     788
 k-point  43 :   0.4286 0.1429 0.1000  plane waves:     790
 k-point  44 :   0.2143 0.2143 0.1000  plane waves:     782
 k-point  45 :   0.2857 0.2143 0.1000  plane waves:     784
 k-point  46 :   0.3571 0.2143 0.1000  plane waves:     783
 k-point  47 :   0.2857 0.2857 0.1000  plane waves:     772
 k-point  48 :   0.3571 0.2857 0.1000  plane waves:     779
 k-point  49 :   0.0000 0.0000 0.2000  plane waves:     746
 k-point  50 :   0.0714-0.0000 0.2000  plane waves:     750
 k-point  51 :   0.1429 0.0000 0.2000  plane waves:     751
 k-point  52 :   0.2143 0.0000 0.2000  plane waves:     772
 k-point  53 :   0.2857 0.0000 0.2000  plane waves:     776
 k-point  54 :   0.3571 0.0000 0.2000  plane waves:     772
 k-point  55 :   0.4286 0.0000 0.2000  plane waves:     775
 k-point  56 :   0.5000 0.0000 0.2000  plane waves:     780
 k-point  57 :   0.0714 0.0714 0.2000  plane waves:     749
 k-point  58 :   0.1429 0.0714 0.2000  plane waves:     764
 k-point  59 :   0.2143 0.0714 0.2000  plane waves:     773
 k-point  60 :   0.2857 0.0714 0.2000  plane waves:     782
[...]
 k-point 130 :   0.1429 0.0714 0.5000  plane waves:     766
 k-point 131 :   0.2143 0.0714 0.5000  plane waves:     774
 k-point 132 :   0.2857 0.0714 0.5000  plane waves:     784
 k-point 133 :   0.3571 0.0714 0.5000  plane waves:     786
 k-point 134 :   0.4286 0.0714 0.5000  plane waves:     776
 k-point 135 :   0.1429 0.1429 0.5000  plane waves:     774
 k-point 136 :   0.2143 0.1429 0.5000  plane waves:     780
 k-point 137 :   0.2857 0.1429 0.5000  plane waves:     792
 k-point 138 :   0.3571 0.1429 0.5000  plane waves:     782
 k-point 139 :   0.4286 0.1429 0.5000  plane waves:     774
 k-point 140 :   0.2143 0.2143 0.5000  plane waves:     792
 k-point 141 :   0.2857 0.2143 0.5000  plane waves:     786
 k-point 142 :   0.3571 0.2143 0.5000  plane waves:     784
 k-point 143 :   0.2857 0.2857 0.5000  plane waves:     784
 k-point 144 :   0.3571 0.2857 0.5000  plane waves:     780

 maximum and minimum number of plane-waves per node :       138      117

 maximum number of plane-waves:       793
 maximum index in each direction:
   IXMAX=    4   IYMAX=    4   IZMAX=   13
   IXMIN=   -4   IYMIN=   -4   IZMIN=  -13

 parallel 3D FFT for wavefunctions:
    minimum data exchange during FFTs selected (reduces bandwidth)
 parallel 3D FFT for charge:
    minimum data exchange during FFTs selected (reduces bandwidth)

 Broyden mixing: mesh for mixing (old mesh)
   NGX =  9   NGY =  9   NGZ = 27
  (NGX  = 32   NGY  = 32   NGZ  =108)
  gives a total of   2187 points

 initial charge density was supplied:
 charge density of overlapping atoms calculated
 number of electron      18.0000000 magnetization       6.0000000
 keeping initial charge density in first step

 Maximum index for augmentation-charges         1022 (set IRDMAX)

 First call to EWALD:  gamma=   0.507
 Maximum number of real-space cells 4x 4x 1
 Maximum number of reciprocal cells 2x 2x 6

--------------------------------------- Iteration      1(   1)  ---------------------------------------

 eigenvalue-minimisations  :  9216
 total energy-change (2. order) : 0.7716192E+02  (-0.6562395E+03)
 number of electron      18.0000000 magnetization       6.0000000
 augmentation part       18.0000000 magnetization       6.0000000

 Free energy of the ion-electron system (eV)
  alpha Z        PSCENC =        39.63868225
  Ewald energy   TEWEN  =     -1054.56880693
  -Hartree energ DENC   =      -595.60964206
  -exchange      EXHF   =         0.00000000
  -V(xc)+E(xc)   XCENC  =        33.36921587
  PAW double counting   =      1439.98163886    -1545.88690193
  entropy T*S    EENTRO =        -0.00305535
  eigenvalues    EBANDS =       133.52532036
  atomic energy  EATOM  =      1626.71546820
  Solvation  Ediel_sol  =         0.00000000
  free energy    TOTEN  =        77.16191928 eV

  energy without entropy =       77.16497462  energy(sigma->0) =       77.16344695

[...]

 eigenvalue-minimisations  :  9304
 total energy-change (2. order) :-0.8773248E+02  (-0.8118575E+02)
 number of electron      18.0000000 magnetization       6.0000000
 augmentation part       18.0000000 magnetization       6.0000000

[...]

 Broyden mixing:
  rms(total) = 0.12569E+01    rms(broyden)= 0.12569E+01
  rms(prec ) = 0.17017E+01
  weight for this iteration     100.00

[...]

 eigenvalues of (default mixing * dielectric matrix)
  average eigenvalue GAMMA=   0.4122
  0.4122

[...]

 eigenvalue-minimisations  : 12136
 total energy-change (2. order) : 0.7933413E-04  (-0.1822315E-04)
 number of electron      17.9999991 magnetization       3.8796263
 augmentation part       10.3093113 magnetization       3.2790766

[...]

 Broyden mixing:
  rms(total) = 0.88369E-03    rms(broyden)= 0.88138E-03
  rms(prec ) = 0.98682E-03
  weight for this iteration     100.00

 eigenvalues of (default mixing * dielectric matrix)
  average eigenvalue GAMMA=   1.1830
  2.7065  2.0585  1.1030  1.1030  1.1500  1.1500  0.6012  0.6012  0.6923  0.6639

[...]

--------------------------------------- Iteration      1(  16)  ---------------------------------------

 eigenvalue-minimisations  :  8152
 total energy-change (2. order) :-0.6801304E-06  (-0.1129115E-06)
 number of electron      17.9999991 magnetization       3.8835547
 augmentation part       10.3120086 magnetization       3.2795777

 Free energy of the ion-electron system (eV)
  alpha Z        PSCENC =        39.63868225
  Ewald energy   TEWEN  =     -1054.56880693
  -Hartree energ DENC   =      -568.01071439
  -exchange      EXHF   =         0.00000000
  -V(xc)+E(xc)   XCENC  =        31.34686910
  PAW double counting   =      1614.44094664    -1720.14792913
  entropy T*S    EENTRO =        -0.00575091
  eigenvalues    EBANDS =        19.35076224
  atomic energy  EATOM  =      1626.71546820
  Solvation  Ediel_sol  =         0.00000000
  free energy    TOTEN  =       -11.24047293 eV

  energy without entropy =      -11.23472202  energy(sigma->0) =      -11.23759747

 average (electrostatic) potential at core
  the test charge radii are     1.0452
  (the norm of the test charge is              1.0000)
       1 -85.4605       2 -85.4606

 E-fermi :   3.1483     XC(G=0):  -9.3874     alpha+bet : -8.9999

 Fermi energy:         3.1483122933

 spin component 1

 k-point     1 :       0.0000    0.0000    0.0000
  band No.  band energies     occupation
      1      -3.0210      1.00000
      2      -2.5548      1.00000
      3      -0.0949      1.00000
      4       0.7595      1.00000
      5       0.7595      1.00000
      6       0.7604      1.00000
      7       0.7604      1.00000
      8       0.9273      1.00000
      9       1.6552      1.00000
     10       1.6552      1.00000
     11       1.6581      1.00000
     12       1.6581      1.00000
     13       2.2058      1.00000
     14       6.4729      0.00000
     15      10.9117      0.00000
     16      18.8367      0.00000

[...]

 k-point   144 :       0.3571    0.2857    0.5000
  band No.  band energies     occupation
      1       0.2150      1.00000
      2       0.2150      1.00000
      3       0.2699      1.00000
      4       0.2699      1.00000
      5       0.5762      1.00000
      6       0.5762      1.00000
      7       0.7458      1.00000
      8       0.7458      1.00000
      9       1.2110      1.00000
     10       1.2110      1.00000
     11       9.0736      0.00000
     12       9.0736      0.00000
     13      10.3890      0.00000
     14      10.3890      0.00000
     15      12.4056      0.00000
     16      12.4056      0.00000
 Fermi energy:         3.1483122933

 spin component 2

[...]

 k-point   144 :       0.3571    0.2857    0.5000
  band No.  band energies     occupation
      1       1.6322      1.00000
      2       1.6322      1.00000
      3       2.1343      1.00000
      4       2.1343      1.00000
      5       2.1928      1.00000
      6       2.1928      1.00000
      7       2.5624      1.00000
      8       2.5624      1.00000
      9       3.4153      0.00000
     10       3.4153      0.00000
     11       9.6098      0.00000
     12       9.6098      0.00000
     13      10.9716      0.00000
     14      10.9716      0.00000
     15      12.9220      0.00000
     16      12.9220      0.00000

 soft charge-density along one line, spin component           1
         0         1         2         3         4         5         6         7         8         9
 total charge-density along one line

 soft charge-density along one line, spin component           2
         0         1         2         3         4         5         6         7         8         9
 total charge-density along one line

------------------------ aborting loop because EDIFF is reached ----------------------------------------

  FORCE on cell =-STRESS in cart. coord.  units (eV):
  Direction    XX          YY          ZZ          XY          YZ          ZX
  Alpha Z    39.63868    39.63868    39.63868
  Ewald     -59.61202   -59.61202  -935.34508    -0.00000     0.00000     0.00000
  Hartree   383.90676   383.90676  -199.74885    -0.00000    -0.00000    -0.00000
  E(xc)     -90.95387   -90.95386   -91.23089     0.00000    -0.00000    -0.00000
  Local    -723.22574  -723.22586   739.53767    -0.00010    -0.00000    -0.00000
  n-local   -11.05409   -11.35683   -15.55542   -10.51161    -0.08220    -0.05757
  augment   313.06344   313.06356   310.90468     0.00011    -0.00000    -0.00000
  Kinetic   147.54232   142.44922   150.53216     8.99651    -0.01387     0.03186
  Fock        0.00000     0.00000     0.00000     0.00000     0.00000     0.00000
  Total      -3.39243    -3.39243    -1.26705     0.00000     0.00000     0.00000
  in kB    -127.15943  -127.15943   -47.49336     0.00000     0.00000     0.00000

 VOLUME and BASIS-vectors are now :
  energy-cutoff  :      400.00
  volume of cell :       42.74
      direct lattice vectors                 reciprocal lattice vectors
     2.470000000  0.000000000  0.000000000     0.404858300  0.233745048  0.000000000
    -1.235000000  2.139082747  0.000000000     0.000000000  0.467490097  0.000000000
     0.000000000  0.000000000  8.090000000     0.000000000  0.000000000  0.123609394

  length of vectors
     2.470000000  2.470000000  8.090000000     0.467490097  0.467490097  0.123609394

 FORCES acting on ions
    electron-ion (+dipol)            ewald-force                    non-local-force                 convergence-correction
   -.481E-05 0.278E-05 -.212E-13   -.208E-13 0.254E-14 -.503E-13   -.190E-18 0.217E-18 0.000E+00   0.872E-10 -.504E-10 -.926E-13
   -.385E-05 0.222E-05 -.738E-12   -.268E-13 0.108E-13 0.503E-13   0.190E-18 -.217E-18 0.000E+00   -.104E-09 0.602E-10 0.180E-12
   -.866E-05 0.500E-05 -.759E-12   -.476E-13 0.133E-13 0.000E+00   0.000E+00 0.000E+00 0.000E+00   -.172E-10 0.987E-11 0.875E-13

 POSITION                                       TOTAL-FORCE (eV/Angst)
      0.00000      0.00000      0.00000        -0.000000      0.000000      0.000000
      0.00000      1.42606      4.04500         0.000000      0.000000      0.000000
    total drift:                               -0.000009      0.000005     -0.000000

  FREE ENERGIE OF THE ION-ELECTRON SYSTEM (eV)
  free  energy   TOTEN  =       -11.24047293 eV

  energy  without entropy=      -11.23472202  energy(sigma->0) =      -11.23759747