 vasp.6.3.2 27Jun22 (build Aug 12 2022 00:53:59) complex

 executed on               tv2STD date 2024.11.30  15:51:59

 INCAR:
   SYSTEM = Pt-fcc
   NWRITE = 2    write-flag
   ISTART = 0    job   : 0-new, 1-cont, 2-samecut
   ICHARG = 2    charge: 0-wave, 1-file, 2-atom, >10-const
   INIWAV = 1    electr: 0-lowe 1-rand  2-diag
   ENCUT = 450     energy cutoff in eV
   PREC = Accurate      normal | accurate
   ADDGRID = .FALSE.  (use fine grid)
   NELM = 100     number of ELM steps
   EDIFF = 1E-06    energy stopping-criterion for ELM
   LREAL = .FALSE.      real-space projection (.FALSE., .TRUE., On, Auto)
   ALGO = Normal     Normal, Fast, Very_Fast
   LWAVE = .FALSE.
   LCHARG = .FALSE.
   NSW = 0       max number of geometry steps
   IBRION = -1     ionic relax: 0-MD, 1-quasi-Newton, 2-CG, 3-Damped MD
   EDIFFG = -0.02  force (eV/A) stopping-criterion for geometry steps
   ISIF = 2     (1:force\=y stress\=trace only ions\=y shape\=n volume\=n)
   ISYM = 1     (1-use symmetry, 0-no symmetry)
   ISMEAR = 0     (-1-Fermi, 1-Methfessel/Paxton)
   SIGMA = 0.05   broadening in eV

 POTCAR:    PAW_PBE Pt_pv 12Dec2005
 POTCAR:    PAW_PBE Pt_pv 12Dec2005
   VRHFIN =Pt: 5ps1d9

   TITEL  = PAW_PBE Pt_pv 12Dec2005
   POMASS =  195.080; ZVAL   =   16.000    mass and valenz
   ENMAX  =  294.607; ENMIN  =  220.955 eV

  PAW_PBE Pt_pv 12Dec2005               :

 POSCAR: Pt
  positions in cartesian coordinates
 exchange correlation table for  LEXCH =        8
   RHO(1)=    0.500       N(1)  =     2000
   RHO(2)=  100.500       N(2)  =     4000

 ion  position               nearest neighbor table
   1  0.000  0.000  0.000-

  LATTYP: Found a face centered cubic cell.
 ALAT       =     3.9400000000

  Lattice vectors:

 A1 = (   0.0000000000,   1.9700000000,   1.9700000000)
 A2 = (   1.9700000000,   0.0000000000,   1.9700000000)
 A3 = (   1.9700000000,   1.9700000000,   0.0000000000)

Analysis of symmetry for initial positions (statically):
 Subroutine PRICEL returns:
 Original cell was already a primitive cell.

 Routine SETGRP: Setting up the symmetry group for a
 face centered cubic supercell.

 Subroutine GETGRP returns: Found 48 space group operations
 (whereof 48 operations were pure point group operations)
 out of a pool of 48 trial point group operations.

The static configuration has the point symmetry O_h .

Analysis of symmetry for dynamics (positions and initial velocities):
 Subroutine PRICEL returns:
 Original cell was already a primitive cell.

 Routine SETGRP: Setting up the symmetry group for a
 face centered cubic supercell.

 Subroutine GETGRP returns: Found 48 space group operations
 (whereof 48 operations were pure point group operations)
 out of a pool of 48 trial point group operations.

The dynamic configuration has the point symmetry O_h .

 Subroutine INISYM returns: Found 48 space group operations
 (whereof 48 operations are pure point group operations),
 and found     1 'primitive' translations

                                     Primitive cell

  volume of cell :      15.2907

  direct lattice vectors                    reciprocal lattice vectors
     0.000000000  1.970000000  1.970000000    -0.253807107  0.253807107  0.253807107
     1.970000000  0.000000000  1.970000000     0.253807107 -0.253807107  0.253807107
     1.970000000  1.970000000  0.000000000     0.253807107  0.253807107 -0.253807107

  length of vectors
     2.786000718  2.786000718  2.786000718     0.439606804  0.439606804  0.439606804

  position of ions in fractional coordinates (direct lattice)
     0.000000000  0.000000000  0.000000000

  ion indices of the primitive-cell ions
   primitive index   ion index
                 1           1

 KPOINTS: Automatic mesh

Automatic generation of k-mesh.
 Grid dimensions read from file:
 generate k-points for:    6    6    6

 Generating k-lattice:

  Cartesian coordinates                     Fractional coordinates (reciprocal lattice)
    -0.042301184  0.042301184  0.042301184     0.166666667  0.000000000  0.000000000
     0.042301184 -0.042301184  0.042301184     0.000000000  0.166666667  0.000000000
     0.042301184  0.042301184 -0.042301184     0.000000000  0.000000000  0.166666667

  Length of vectors
     0.073267801  0.073267801  0.073267801

  Shift w.r.t. Gamma in fractional coordinates (k-lattice)
     0.500000000  0.500000000  0.500000000

 Subroutine IBZKPT returns following result:

 Found     28 irreducible k-points:

 Following reciprocal coordinates:
            Coordinates               Weight
  0.083333  0.083333  0.083333      8.000000
  0.250000  0.083333  0.083333     24.000000
  0.416667  0.083333  0.083333     24.000000
 -0.416667  0.083333  0.083333     24.000000
 -0.250000  0.083333  0.083333     24.000000
 -0.083333  0.083333  0.083333     24.000000
  0.250000  0.250000  0.083333     24.000000
  0.416667  0.250000  0.083333     48.000000
 -0.416667  0.250000  0.083333     48.000000
 -0.250000  0.250000  0.083333     48.000000
 -0.083333  0.250000  0.083333     48.000000
  0.416667  0.416667  0.083333     24.000000
 -0.416667  0.416667  0.083333     48.000000
 -0.250000  0.416667  0.083333     48.000000
 -0.083333  0.416667  0.083333     48.000000
 -0.416667 -0.416667  0.083333     24.000000
 -0.250000 -0.416667  0.083333     48.000000
 -0.250000 -0.250000  0.083333     24.000000
  0.250000  0.250000  0.250000      8.000000
  0.416667  0.250000  0.250000     24.000000
 -0.416667  0.250000  0.250000     24.000000
 -0.250000  0.250000  0.250000     24.000000
  0.416667  0.416667  0.250000     24.000000
 -0.416667  0.416667  0.250000     48.000000
 -0.250000  0.416667  0.250000     48.000000
 -0.416667 -0.416667  0.250000     24.000000
  0.416667  0.416667  0.416667      8.000000
 -0.416667  0.416667  0.416667     24.000000

 Following cartesian coordinates:
            Coordinates               Weight
  0.021151  0.021151  0.021151      8.000000
 -0.021151  0.063452  0.063452     24.000000
 -0.063452  0.105753  0.105753     24.000000
  0.148054 -0.105753 -0.105753     24.000000
  0.105753 -0.063452 -0.063452     24.000000
  0.063452 -0.021151 -0.021151     24.000000
  0.021151  0.021151  0.105753     24.000000
 -0.021151  0.063452  0.148054     48.000000
  0.190355 -0.148054 -0.063452     48.000000
  0.148054 -0.105753 -0.021151     48.000000
  0.105753 -0.063452  0.021151     48.000000
  0.021151  0.021151  0.190355     24.000000
  0.232657 -0.190355 -0.021151     48.000000
  0.190355 -0.148054  0.021151     48.000000
  0.148054 -0.105753  0.063452     48.000000
  0.021151  0.021151 -0.232657     24.000000
 -0.021151  0.063452 -0.190355     48.000000
  0.021151  0.021151 -0.148054     24.000000
  0.063452  0.063452  0.063452      8.000000
  0.021151  0.105753  0.105753     24.000000
  0.232657 -0.105753 -0.105753     24.000000
  0.190355 -0.063452 -0.063452     24.000000
  0.063452  0.063452  0.148054     24.000000
  0.274958 -0.148054 -0.063452     48.000000
  0.232657 -0.105753 -0.021151     48.000000
  0.063452  0.063452 -0.274958     24.000000
  0.105753  0.105753  0.105753      8.000000
  0.317259 -0.105753 -0.105753     24.000000

 SYSTEM =  Pt-fcc
 POSCAR =  Pt

 Startparameter for this run:
   NWRITE =      2    write-flag & timer
   PREC   = accura    normal or accurate (medium, high low for compatibility)
   ISTART =      0    job   : 0-new  1-cont  2-samecut
   ICHARG =      2    charge: 1-file 2-atom 10-const
   ISPIN  =      1    spin polarized calculation?
   LNONCOLLINEAR =      F non collinear calculations
   LSORBIT =      F    spin-orbit coupling
   INIWAV =      1    electr: 0-lowe 1-rand  2-diag
   LASPH  =      F    aspherical Exc in radial PAW
 Electronic Relaxation 1
   ENCUT  =  450.0 eV  33.07 Ry    5.75 a.u.   4.82  4.82  4.82*2*pi/ulx,y,z
   ENINI  =  450.0     initial cutoff
   ENAUG  =  527.0 eV  augmentation charge cutoff
   NELM   =    100;   NELMIN=  2; NELMDL= -5     # of ELM steps
   EDIFF  = 0.1E-05   stopping-criterion for ELM
   LREAL  =      F    real-space projection
   NLSPLINE    = F    spline interpolate recip. space projectors
   LCOMPAT=      F    compatible to vasp.4.4
   GGA_COMPAT  = T    GGA compatible to vasp.4.4-vasp.4.6
   LMAXPAW     = -100 max onsite density
   LMAXMIX     =    2 max onsite mixed and CHGCAR
   VOSKOWN=      0    Vosko Wilk Nusair interpolation
   ROPT   =    0.00000
 Ionic relaxation
   EDIFFG = -.2E-01   stopping-criterion for IOM
   NSW    =      0    number of steps for IOM
   NBLOCK =      1;   KBLOCK =      1    inner block; outer block
   IBRION =     -1    ionic relax: 0-MD 1-quasi-New 2-CG
   NFREE  =      0    steps in history (QN), initial steepest desc. (CG)
   ISIF   =      2    stress and relaxation
   IWAVPR =     10    prediction:  0-non 1-charg 2-wave 3-comb
   ISYM   =      1    0-nonsym 1-usesym 2-fastsym
   LCORR  =      T    Harris-Foulkes like correction to forces

   POTIM  = 0.5000    time-step for ionic-motion
   TEIN   =    0.0    initial temperature
   TEBEG  =    0.0;   TEEND  =   0.0 temperature during run
   SMASS  =  -3.00    Nose mass-parameter (am)
   estimated Nose-frequenzy (Omega)   =  0.10E-29 period in steps = 0.13E+47 mass=  -0.177E-27a.u.
   SCALEE = 1.0000    scale energy and forces
   NPACO  =    256;   APACO  = 10.0  distance and # of slots for P.C.
   PSTRESS=    0.0 pullay stress

  Mass of Ions in am
   POMASS = 195.08
  Ionic Valenz
   ZVAL   =  16.00
  Atomic Wigner-Seitz radii
  virtual crystal weights
   VCA    =   1.00
   NELECT =      16.0000    total number of electrons
   NUPDOWN=      -1.0000    fix difference up-down

 DOS related values:
   EMIN   =  10.00;   EMAX   =-10.00  energy-range for DOS
   EFERMI =   0.00
   ISMEAR =     0;   SIGMA  =   0.05  broadening in eV -4-tet -1-fermi 0-gaus

 Electronic relaxation 2 (details)
   IALGO  =     38    algorithm
   LDIAG  =      T    sub-space diagonalisation (order eigenvalues)
   LSUBROT=      F    optimize rotation matrix (better conditioning)
   TURBO    =      0    0=normal 1=particle mesh
   IRESTART =      0    0=no restart 2=restart with 2 vectors
   NREBOOT  =      0    no. of reboots
   NMIN     =      0    reboot dimension
   EREF     =   0.00    reference energy to select bands
   IMIX   =      4    mixing-type and parameters
     AMIX     =   0.40;   BMIX     =  1.00
     AMIX_MAG =   1.60;   BMIX_MAG =  1.00
     AMIN     =   0.10
     WC   =   100.;   INIMIX=   1;  MIXPRE=   1;  MAXMIX= -45

 Intra band minimization:
   WEIMIN = 0.0000     energy-eigenvalue tresh-hold
   EBREAK =  0.10E-07  absolut break condition
   DEPER  =   0.30     relativ break condition

   TIME   =   0.40     timestep for ELM

  volume/ion in A,a.u.               =      15.29       103.19
  Fermi-wavevector in a.u.,A,eV,Ry     =   1.662029  3.140779 37.583923  2.762340
  Thomas-Fermi vector in A             =   2.748990

 Write flags
   LWAVE        =      F    write WAVECAR
   LDOWNSAMPLE  =      F    k-point downsampling of WAVECAR
   LCHARG       =      F    write CHGCAR
   LVTOT        =      F    write LOCPOT, total local potential
   LVHAR        =      F    write LOCPOT, Hartree potential only
   LELF         =      F    write electronic localiz. function (ELF)
   LORBIT       =      0    0 simple, 1 ext, 2 COOP (PROOUT), +10 PAW based schemes

 Dipole corrections
   LMONO  =      F    monopole corrections only (constant potential shift)
   LDIPOL =      F    correct potential (dipole corrections)
   IDIPOL =      0    1-x, 2-y, 3-z, 4-all directions
   EPSILON=  1.0000000 bulk dielectric constant

 Exchange correlation treatment:
   GGA     =    --    GGA type
   VOSKOWN =     0    Vosko Wilk Nusair interpolation
   LHFCALC =     F    Hartree Fock is set to
   LHFONE  =     F    Hartree Fock one center treatment
   AEXX    =    0.0000 exact exchange contribution

 Linear response parameters
   LEPSILON=     F    determine dielectric tensor
   LRPA    =     F    only Hartree local field effects (RPA)
   LNABLA  =     F    use nabla operator in PAW spheres
   LVEL    =     F    velocity operator in full k-point grid
   CSHIFT  =0.1000    complex shift for real part using Kramers Kronig
   OMEGAMAX=  -1.0    maximum frequency
   DEG_THRESHOLD= 0.2000000E-02 threshold for treating states as degnerate
   RTIME   =   -0.100 relaxation time in fs
  (WPLASMAI=    0.000 imaginary part of plasma frequency in eV, 0.658/RTIME)
   DFIELD  = 0.0000000 0.0000000 0.0000000 field for delta impulse in time

  Optional k-point grid parameters
   LKPOINTS_OPT  =     F    use optional k-point grid
   KPOINTS_OPT_MODE=     1    mode for optional k-point grid

 Orbital magnetization related:
   ORBITALMAG=     F  switch on orbital magnetization
   LCHIMAG   =     F  perturbation theory with respect to B field
   DQ        =  0.001000  dq finite difference perturbation B field
   LLRAUG    =     F  two centre corrections for induced B field

 Static calculation
 charge density and potential will be updated during run
 non-spin polarized calculation
 Variant of blocked Davidson
 Davidson routine will perform the subspace rotation
 perform sub-space diagonalisation
    after iterative eigenvector-optimisation
 modified Broyden-mixing scheme, WC =      100.0
 initial mixing is a Kerker type mixing with AMIX =  0.4000 and BMIX =      1.0000
 Hartree-type preconditioning will be used
 using additional bands           16
 reciprocal scheme for non local part
 use partial core corrections
 calculate Harris-corrections to forces
   (improved forces if not selfconsistent)
 use gradient corrections
 use of overlap-Matrix (Vanderbilt PP)
 Gauss-broadening in eV      SIGMA  =   0.05

  energy-cutoff  :      450.00
  volume of cell :       15.29
      direct lattice vectors                 reciprocal lattice vectors
     0.000000000  1.970000000  1.970000000    -0.253807107  0.253807107  0.253807107
     1.970000000  0.000000000  1.970000000     0.253807107 -0.253807107  0.253807107
     1.970000000  1.970000000  0.000000000     0.253807107  0.253807107 -0.253807107

[...]

 k-points in units of 2pi/SCALE and weight: Automatic mesh
   0.02115059  0.02115059  0.02115059       0.009
  -0.02115059  0.06345178  0.06345178       0.028
  -0.06345178  0.10575296  0.10575296       0.028
   0.14805415 -0.10575296 -0.10575296       0.028
   0.10575296 -0.06345178 -0.06345178       0.028
   0.06345178 -0.02115059 -0.02115059       0.028
   0.02115059  0.02115059  0.10575296       0.028
  -0.02115059  0.06345178  0.14805415       0.056
   0.19035533 -0.14805415 -0.06345178       0.056
   0.14805415 -0.10575296 -0.02115059       0.056
   0.10575296 -0.06345178  0.02115059       0.056
   0.02115059  0.02115059  0.19035533       0.028
   0.23265651 -0.19035533 -0.02115059       0.056
   0.19035533 -0.14805415  0.02115059       0.056
   0.14805415 -0.10575296  0.06345178       0.056
   0.02115059  0.02115059 -0.23265651       0.028
  -0.02115059  0.06345178 -0.19035533       0.056
   0.02115059  0.02115059 -0.14805415       0.028
   0.06345178  0.06345178  0.06345178       0.009
   0.02115059  0.10575296  0.10575296       0.028
   0.23265651 -0.10575296 -0.10575296       0.028
   0.19035533 -0.06345178 -0.06345178       0.028
   0.06345178  0.06345178  0.14805415       0.028
   0.27495770 -0.14805415 -0.06345178       0.056
   0.23265651 -0.10575296 -0.02115059       0.056
   0.06345178  0.06345178 -0.27495770       0.028
   0.10575296  0.10575296  0.10575296       0.009
   0.31725888 -0.10575296 -0.10575296       0.028

 k-points in reciprocal lattice and weights: Automatic mesh
   0.08333333  0.08333333  0.08333333       0.009
   0.25000000  0.08333333  0.08333333       0.028
   0.41666667  0.08333333  0.08333333       0.028
  -0.41666667  0.08333333  0.08333333       0.028
  -0.25000000  0.08333333  0.08333333       0.028
  -0.08333333  0.08333333  0.08333333       0.028
   0.25000000  0.25000000  0.08333333       0.028
   0.41666667  0.25000000  0.08333333       0.056
  -0.41666667  0.25000000  0.08333333       0.056
  -0.25000000  0.25000000  0.08333333       0.056
  -0.08333333  0.25000000  0.08333333       0.056
   0.41666667  0.41666667  0.08333333       0.028
  -0.41666667  0.41666667  0.08333333       0.056
  -0.25000000  0.41666667  0.08333333       0.056
  -0.08333333  0.41666667  0.08333333       0.056
  -0.41666667 -0.41666667  0.08333333       0.028
  -0.25000000 -0.41666667  0.08333333       0.056
  -0.25000000 -0.25000000  0.08333333       0.028
   0.25000000  0.25000000  0.25000000       0.009
   0.41666667  0.25000000  0.25000000       0.028
  -0.41666667  0.25000000  0.25000000       0.028
  -0.25000000  0.25000000  0.25000000       0.028
   0.41666667  0.41666667  0.25000000       0.028
  -0.41666667  0.41666667  0.25000000       0.056
  -0.25000000  0.41666667  0.25000000       0.056
  -0.41666667 -0.41666667  0.25000000       0.028
   0.41666667  0.41666667  0.41666667       0.009
  -0.41666667  0.41666667  0.41666667       0.028

 position of ions in fractional coordinates (direct lattice)
   0.00000000  0.00000000  0.00000000

 position of ions in cartesian coordinates  (Angst):
   0.00000000  0.00000000  0.00000000

 k-point   1 :   0.0833 0.0833 0.0833  plane waves:     332
 k-point   2 :   0.2500 0.0833 0.0833  plane waves:     323
 k-point   3 :   0.4167 0.0833 0.0833  plane waves:     334
 k-point   4 :  -0.4167 0.0833 0.0833  plane waves:     337
 k-point   5 :  -0.2500 0.0833 0.0833  plane waves:     329
 k-point   6 :  -0.0833 0.0833 0.0833  plane waves:     330
 k-point   7 :   0.2500 0.2500 0.0833  plane waves:     330
 k-point   8 :   0.4167 0.2500 0.0833  plane waves:     328
 k-point   9 :  -0.4167 0.2500 0.0833  plane waves:     330
 k-point  10 :  -0.2500 0.2500 0.0833  plane waves:     329
 k-point  11 :  -0.0833 0.2500 0.0833  plane waves:     331
 k-point  12 :   0.4167 0.4167 0.0833  plane waves:     327
 k-point  13 :  -0.4167 0.4167 0.0833  plane waves:     334
 k-point  14 :  -0.2500 0.4167 0.0833  plane waves:     335
 k-point  15 :  -0.0833 0.4167 0.0833  plane waves:     334
 k-point  16 :  -0.4167-0.4167 0.0833  plane waves:     332
 k-point  17 :  -0.2500-0.4167 0.0833  plane waves:     331
 k-point  18 :  -0.2500-0.2500 0.0833  plane waves:     327
 k-point  19 :   0.2500 0.2500 0.2500  plane waves:     326
 k-point  20 :   0.4167 0.2500 0.2500  plane waves:     327
 k-point  21 :  -0.4167 0.2500 0.2500  plane waves:     335
 k-point  22 :  -0.2500 0.2500 0.2500  plane waves:     331
 k-point  23 :   0.4167 0.4167 0.2500  plane waves:     330
 k-point  24 :  -0.4167 0.4167 0.2500  plane waves:     333
 k-point  25 :  -0.2500 0.4167 0.2500  plane waves:     333
 k-point  26 :  -0.4167-0.4167 0.2500  plane waves:     335
 k-point  27 :   0.4167 0.4167 0.4167  plane waves:     332
 k-point  28 :  -0.4167 0.4167 0.4167  plane waves:     334

 maximum and minimum number of plane-waves per node :       337      323

 maximum number of plane-waves:       337
 maximum index in each direction:
   IXMAX=    5   IYMAX=    5   IZMAX=    4
   IXMIN=   -5   IYMIN=   -5   IZMIN=   -5

 serial   3D FFT for wavefunctions
 parallel 3D FFT for charge:
    minimum data exchange during FFTs selected (reduces bandwidth)

 Broyden mixing: mesh for mixing (old mesh)
   NGX =  9   NGY =  9   NGZ =  9
  (NGX  = 40   NGY  = 40   NGZ  = 40)
  gives a total of    729 points

 initial charge density was supplied:
 charge density of overlapping atoms calculated
 number of electron      16.0000000 magnetization
 keeping initial charge density in first step

 Maximum index for augmentation-charges          868 (set IRDMAX)

 First call to EWALD:  gamma=   0.714
 Maximum number of real-space cells 3x 3x 3
 Maximum number of reciprocal cells 3x 3x 3

--------------------------------------- Iteration      1(   1)  ---------------------------------------

 eigenvalue-minimisations  :  1488
 total energy-change (2. order) : 0.2015219E+02  (-0.1207606E+04)
 number of electron      16.0000000 magnetization
 augmentation part       16.0000000 magnetization

 Free energy of the ion-electron system (eV)
  alpha Z        PSCENC =       156.91311333
  Ewald energy   TEWEN  =     -2144.84590610
  -Hartree energ DENC   =      -397.82488157
  -exchange      EXHF   =         0.00000000
  -V(xc)+E(xc)   XCENC  =        63.81680431
  PAW double counting   =      2065.75261637    -2030.83594803
  entropy T*S    EENTRO =        -0.00102384
  eigenvalues    EBANDS =      -121.03742066
  atomic energy  EATOM  =      2428.21483272
  Solvation  Ediel_sol  =         0.00000000
  free energy    TOTEN  =        20.15218654 eV

  energy without entropy =       20.15321038  energy(sigma->0) =       20.15269846

[...]

 eigenvalue-minimisations  :  1800
 total energy-change (2. order) :-0.2654859E+02  (-0.2618634E+02)
 number of electron      16.0000000 magnetization
 augmentation part       16.0000000 magnetization

[...]

 Broyden mixing:
  rms(total) = 0.14949E+01    rms(broyden)= 0.14948E+01
  rms(prec ) = 0.20384E+01
  weight for this iteration     100.00

[...]

 eigenvalues of (default mixing * dielectric matrix)
  average eigenvalue GAMMA=   1.4532
  1.4532

[...]

 eigenvalue-minimisations  :  1920
 total energy-change (2. order) :-0.5720880E-05  (-0.5287381E-06)
 number of electron      16.0000003 magnetization
 augmentation part        4.1137974 magnetization

 Broyden mixing:
  rms(total) = 0.56423E-03    rms(broyden)= 0.56396E-03
  rms(prec ) = 0.57297E-03
  weight for this iteration     100.00

 eigenvalues of (default mixing * dielectric matrix)
  average eigenvalue GAMMA=   1.7332
  2.6825  2.3405  0.9869  1.4413  1.2146

[...]

--------------------------------------- Iteration      1(  11)  ---------------------------------------

 eigenvalue-minimisations  :   816
 total energy-change (2. order) : 0.5412585E-07  (-0.4757835E-09)
 number of electron      16.0000003 magnetization
 augmentation part        4.1137974 magnetization

 Free energy of the ion-electron system (eV)
  alpha Z        PSCENC =       156.91311333
  Ewald energy   TEWEN  =     -2144.84590610
  -Hartree energ DENC   =      -378.62331231
  -exchange      EXHF   =         0.00000000
  -V(xc)+E(xc)   XCENC  =        62.96715347
  PAW double counting   =      2353.22233466    -2320.91046475
  entropy T*S    EENTRO =        -0.00154750
  eigenvalues    EBANDS =      -163.02874693
  atomic energy  EATOM  =      2428.21483272
  Solvation  Ediel_sol  =         0.00000000
  free energy    TOTEN  =        -6.09254340 eV

  energy without entropy =       -6.09099590  energy(sigma->0) =       -6.09176965

 average (electrostatic) potential at core
  the test charge radii are     0.9952
  (the norm of the test charge is              1.0000)
       1 -88.9630

 E-fermi :  11.7937     XC(G=0): -13.9141     alpha+bet :-17.1560

 Fermi energy:        11.7937176192

 k-point     1 :       0.0833    0.0833    0.0833
  band No.  band energies     occupation
      1     -40.7275      2.00000
      2     -40.7010      2.00000
      3     -40.7010      2.00000
      4       1.9727      2.00000
      5       7.9642      2.00000
      6       8.1882      2.00000
      7       8.1882      2.00000
      8      10.1414      2.00000
      9      10.1414      2.00000
     10      26.8569      0.00000
     11      30.0027      0.00000
     12      31.7387      0.00000
     13      31.7387      0.00000
     14      37.9662      0.00000
     15      40.8595      0.00000
     16      41.9419      0.00000
     17      41.9419      0.00000
     18      46.2461      0.00000
     19      46.2461      0.00000
     20      47.9434      0.00000
     21      52.4857      0.00000
     22      52.8256      0.00000
     23      52.8256      0.00000
     24      60.3284      0.00000

[...]

 k-point    28 :      -0.4167    0.4167    0.4167
  band No.  band energies     occupation
      1     -41.1040      2.00000
      2     -40.8428      2.00000
      3     -40.7788      2.00000
      4       5.3995      2.00000
      5       7.4583      2.00000
      6       8.6928      2.00000
      7       8.9797      2.00000
      8      11.5071      2.00000
      9      14.7950      0.00000
     10      17.7220      0.00000
     11      26.5191      0.00000
     12      28.6223      0.00000
     13      30.2012      0.00000
     14      38.4292      0.00000
     15      39.3450      0.00000
     16      42.8001      0.00000
     17      46.1920      0.00000
     18      47.6150      0.00000
     19      47.6848      0.00000
     20      51.6157      0.00000
     21      52.3627      0.00000
     22      52.4912      0.00000
     23      57.7017      0.00000
     24      58.6039      0.00000

 soft charge-density along one line, spin component           1
         0         1         2         3         4         5         6         7         8         9
 total charge-density along one line

------------------------ aborting loop because EDIFF is reached ----------------------------------------

  FORCE on cell =-STRESS in cart. coord.  units (eV):
  Direction    XX          YY          ZZ          XY          YZ          ZX
  Alpha Z   156.91311   156.91311   156.91311
  Ewald    -714.94866  -714.94866  -714.94866    -0.00000     0.00000     0.00000
  Hartree   126.20711   126.20711   126.20711     0.00000     0.00000     0.00000
  E(xc)     -85.54033   -85.54033   -85.54033     0.00000     0.00000     0.00000
  Local     124.97163   124.97163   124.97163     0.00000     0.00000     0.00000
  n-local   -29.77373   -27.13808   -32.98831     3.44998    -4.00896    -0.66572
  augment    73.36175    73.36175    73.36175     0.00000     0.00000     0.00000
  Kinetic   348.56696   353.27201   346.31708     4.12202    -4.47610     1.76477
  Fock        0.00000     0.00000     0.00000     0.00000     0.00000     0.00000
  Total       0.38327     0.38327     0.38327     0.00000     0.00000    -0.00000
  in kB      40.15893    40.15893    40.15893     0.00000     0.00000    -0.00000

 VOLUME and BASIS-vectors are now :
  energy-cutoff  :      450.00
  volume of cell :       15.29
      direct lattice vectors                 reciprocal lattice vectors
     0.000000000  1.970000000  1.970000000    -0.253807107  0.253807107  0.253807107
     1.970000000  0.000000000  1.970000000     0.253807107 -0.253807107  0.253807107
     1.970000000  1.970000000  0.000000000     0.253807107  0.253807107 -0.253807107

  length of vectors
     2.786000718  2.786000718  2.786000718     0.439606804  0.439606804  0.439606804

 FORCES acting on ions
    electron-ion (+dipol)            ewald-force                    non-local-force                 convergence-correction
   -.612E-14 -.743E-14 -.704E-15   -.456E-14 -.897E-14 -.116E-13   -.323E-25 0.123E-24 0.000E+00   -.367E-13 -.102E-12 -.384E-13
   -.612E-14 -.743E-14 -.704E-15   -.456E-14 -.897E-14 -.116E-13   -.323E-25 0.123E-24 0.000E+00   -.367E-13 -.102E-12 -.384E-13

 POSITION                                       TOTAL-FORCE (eV/Angst)
      0.00000      0.00000      0.00000        -0.000000     -0.000000     -0.000000
    total drift:                               -0.000000     -0.000000     -0.000000

  FREE ENERGIE OF THE ION-ELECTRON SYSTEM (eV)
  free  energy   TOTEN  =        -6.09254340 eV

  energy  without entropy=       -6.09099590  energy(sigma->0) =       -6.09176965