 vasp.6.3.2 27Jun22 (build Aug 12 2022 00:53:59) complex

 executed on               tv2STD date 2024.12.03  01:39:30

 INCAR:
   SYSTEM = Pt-hcc
   NWRITE = 2    write-flag
   ISTART = 0    job   : 0-new, 1-cont, 2-samecut
   ICHARG = 2    charge: 0-wave, 1-file, 2-atom, >10-const
   INIWAV = 1    electr: 0-lowe 1-rand  2-diag
   ENCUT = 450.0     energy cutoff in eV
   PREC = Accurate      normal | accurate
   ADDGRID = .FALSE.  (use fine grid)
   NELM = 100     number of ELM steps
   EDIFF = 1E-06    energy stopping-criterion for ELM
   LREAL = .FALSE.      real-space projection (.FALSE., .TRUE., On, Auto)
   ALGO = Normal     Normal, Fast, Very_Fast
   LWAVE = .TRUE.
   LCHARG = .TRUE.
   NSW = 100       max number of geometry steps
   IBRION = 2     ionic relax: 0-MD, 1-quasi-Newton, 2-CG, 3-Damped MD
   EDIFFG = -0.02  force (eV/A) stopping-criterion for geometry steps
   ISIF = 2     (1:force\=y stress\=trace only ions\=y shape\=n volume\=n)
   ISYM = 1     (1-use symmetry, 0-no symmetry)
   ISMEAR = 0     (-1-Fermi, 1-Methfessel/Paxton)
   SIGMA = 0.05   broadening in eV
   LORBIT = 11

 POTCAR:    PAW_PBE Pt_pv 12Dec2005
 POTCAR:    PAW_PBE Pt_pv 12Dec2005
   VRHFIN =Pt: 5ps1d9

   TITEL  = PAW_PBE Pt_pv 12Dec2005
   POMASS =  195.080; ZVAL   =   16.000    mass and valenz
   ENMAX  =  294.607; ENMIN  =  220.955 eV

  PAW_PBE Pt_pv 12Dec2005               :

 POSCAR: Pt
  positions in cartesian coordinates
 exchange correlation table for  LEXCH =        8
   RHO(1)=    0.500       N(1)  =     2000
   RHO(2)=  100.500       N(2)  =     4000

 ion  position               nearest neighbor table
   1  0.000  0.000  0.000-
   2  0.333  0.667  0.500-

  LATTYP: Found a hexagonal cell.
 ALAT       =     3.0282693341
 C/A-ratio  =     1.7324766951

  Lattice vectors:

 A1 = (   3.0282693341,   0.0000000000,   0.0000000000)
 A2 = (  -1.5141346671,   2.6225581728,   0.0000000000)
 A3 = (   0.0000000000,   0.0000000000,   5.2464060480)

Analysis of symmetry for initial positions (statically):
 Subroutine PRICEL returns:
 Original cell was already a primitive cell.

 Routine SETGRP: Setting up the symmetry group for a
 hexagonal supercell.

 Subroutine GETGRP returns: Found 24 space group operations
 (whereof 12 operations were pure point group operations)
 out of a pool of 24 trial point group operations.

The static configuration has the point symmetry D_3h.
 The point group associated with its full space group is D_6h.

Analysis of symmetry for dynamics (positions and initial velocities):
 Subroutine PRICEL returns:
 Original cell was already a primitive cell.

 Routine SETGRP: Setting up the symmetry group for a
 hexagonal supercell.

 Subroutine GETGRP returns: Found 24 space group operations
 (whereof 12 operations were pure point group operations)
 out of a pool of 24 trial point group operations.

The dynamic configuration has the point symmetry D_3h.
 The point group associated with its full space group is D_6h.

 Subroutine INISYM returns: Found 24 space group operations
 (whereof 12 operations are pure point group operations),
 and found     1 'primitive' translations

                                     Primitive cell

  volume of cell :      41.6660

  direct lattice vectors                    reciprocal lattice vectors
     3.028269334  0.000000000  0.000000000     0.330221618  0.190653540  0.000000000
    -1.514134667  2.622558173  0.000000000     0.000000000  0.381307080  0.000000000
     0.000000000  0.000000000  5.246406048     0.000000000  0.000000000  0.190606673

  length of vectors
     3.028269334  3.028269334  5.246406048     0.381307080  0.381307080  0.190606673

  position of ions in fractional coordinates (direct lattice)
     0.000000000  0.000000000  0.000000000
     0.333333333  0.666666667  0.500000000

  ion indices of the primitive-cell ions
   primitive index   ion index
                 1           1
                 2           2

 KPOINTS: Automatic mesh

Automatic generation of k-mesh.
 Grid dimensions read from file:
 generate k-points for:   10   10    8

 Generating k-lattice:

  Cartesian coordinates                     Fractional coordinates (reciprocal lattice)
     0.033022162  0.019065354  0.000000000     0.100000000  0.000000000  0.000000000
     0.000000000  0.038130708  0.000000000     0.000000000  0.100000000  0.000000000
     0.000000000  0.000000000  0.023825834     0.000000000  0.000000000  0.125000000

  Length of vectors
     0.038130708  0.038130708  0.023825834

  Shift w.r.t. Gamma in fractional coordinates (k-lattice)
     0.000000000  0.000000000  0.000000000

 Subroutine IBZKPT returns following result:

 Found     70 irreducible k-points:

 Following reciprocal coordinates:
            Coordinates               Weight
  0.000000  0.000000  0.000000      1.000000
  0.100000 -0.000000  0.000000      6.000000
  0.200000 -0.000000  0.000000      6.000000
  0.300000 -0.000000  0.000000      6.000000
  0.400000 -0.000000  0.000000      6.000000
  0.500000 -0.000000  0.000000      3.000000
  0.100000  0.100000  0.000000      6.000000
  0.200000  0.100000  0.000000     12.000000
  0.300000  0.100000  0.000000     12.000000
  0.400000  0.100000  0.000000     12.000000
  0.200000  0.200000  0.000000      6.000000
  0.300000  0.200000  0.000000     12.000000
  0.400000  0.200000  0.000000      6.000000
  0.300000  0.300000  0.000000      6.000000
  0.000000  0.000000  0.125000      2.000000
  0.100000 -0.000000  0.125000     12.000000
  0.200000 -0.000000  0.125000     12.000000
  0.300000 -0.000000  0.125000     12.000000
  0.400000 -0.000000  0.125000     12.000000
  0.500000 -0.000000  0.125000      6.000000
  0.100000  0.100000  0.125000     12.000000
  0.200000  0.100000  0.125000     24.000000
  0.300000  0.100000  0.125000     24.000000
  0.400000  0.100000  0.125000     24.000000
  0.200000  0.200000  0.125000     12.000000
  0.300000  0.200000  0.125000     24.000000
  0.400000  0.200000  0.125000     12.000000
  0.300000  0.300000  0.125000     12.000000
  0.000000  0.000000  0.250000      2.000000
  0.100000 -0.000000  0.250000     12.000000
  0.200000 -0.000000  0.250000     12.000000
  0.300000 -0.000000  0.250000     12.000000
  0.400000 -0.000000  0.250000     12.000000
  0.500000 -0.000000  0.250000      6.000000
  0.100000  0.100000  0.250000     12.000000
  0.200000  0.100000  0.250000     24.000000
  0.300000  0.100000  0.250000     24.000000
  0.400000  0.100000  0.250000     24.000000
  0.200000  0.200000  0.250000     12.000000
  0.300000  0.200000  0.250000     24.000000
  0.400000  0.200000  0.250000     12.000000
  0.300000  0.300000  0.250000     12.000000
  0.000000  0.000000  0.375000      2.000000
  0.100000 -0.000000  0.375000     12.000000
  0.200000 -0.000000  0.375000     12.000000
  0.300000 -0.000000  0.375000     12.000000
  0.400000 -0.000000  0.375000     12.000000
  0.500000 -0.000000  0.375000      6.000000
  0.100000  0.100000  0.375000     12.000000
  0.200000  0.100000  0.375000     24.000000
  0.300000  0.100000  0.375000     24.000000
  0.400000  0.100000  0.375000     24.000000
  0.200000  0.200000  0.375000     12.000000
  0.300000  0.200000  0.375000     24.000000
  0.400000  0.200000  0.375000     12.000000
  0.300000  0.300000  0.375000     12.000000
  0.000000  0.000000  0.500000      1.000000
  0.100000 -0.000000  0.500000      6.000000
  0.200000 -0.000000  0.500000      6.000000
  0.300000 -0.000000  0.500000      6.000000
  0.400000 -0.000000  0.500000      6.000000
  0.500000 -0.000000  0.500000      3.000000
  0.100000  0.100000  0.500000      6.000000
  0.200000  0.100000  0.500000     12.000000
  0.300000  0.100000  0.500000     12.000000
  0.400000  0.100000  0.500000     12.000000
  0.200000  0.200000  0.500000      6.000000
  0.300000  0.200000  0.500000     12.000000
  0.400000  0.200000  0.500000      6.000000
  0.300000  0.300000  0.500000      6.000000

 Following cartesian coordinates:
            Coordinates               Weight
  0.000000  0.000000  0.000000      1.000000
  0.033022  0.019065  0.000000      6.000000
  0.066044  0.038131  0.000000      6.000000
  0.099066  0.057196  0.000000      6.000000
  0.132089  0.076261  0.000000      6.000000
  0.165111  0.095327  0.000000      3.000000
  0.033022  0.057196  0.000000      6.000000
  0.066044  0.076261  0.000000     12.000000
  0.099066  0.095327  0.000000     12.000000
  0.132089  0.114392  0.000000     12.000000
  0.066044  0.114392  0.000000      6.000000
  0.099066  0.133457  0.000000     12.000000
  0.132089  0.152523  0.000000      6.000000
  0.099066  0.171588  0.000000      6.000000
  0.000000  0.000000  0.023826      2.000000
  0.033022  0.019065  0.023826     12.000000
  0.066044  0.038131  0.023826     12.000000
  0.099066  0.057196  0.023826     12.000000
  0.132089  0.076261  0.023826     12.000000
  0.165111  0.095327  0.023826      6.000000
  0.033022  0.057196  0.023826     12.000000
  0.066044  0.076261  0.023826     24.000000
  0.099066  0.095327  0.023826     24.000000
  0.132089  0.114392  0.023826     24.000000
  0.066044  0.114392  0.023826     12.000000
  0.099066  0.133457  0.023826     24.000000
  0.132089  0.152523  0.023826     12.000000
  0.099066  0.171588  0.023826     12.000000
  0.000000  0.000000  0.047652      2.000000
  0.033022  0.019065  0.047652     12.000000
  0.066044  0.038131  0.047652     12.000000
  0.099066  0.057196  0.047652     12.000000
  0.132089  0.076261  0.047652     12.000000
  0.165111  0.095327  0.047652      6.000000
  0.033022  0.057196  0.047652     12.000000
  0.066044  0.076261  0.047652     24.000000
  0.099066  0.095327  0.047652     24.000000
  0.132089  0.114392  0.047652     24.000000
  0.066044  0.114392  0.047652     12.000000
  0.099066  0.133457  0.047652     24.000000
  0.132089  0.152523  0.047652     12.000000
  0.099066  0.171588  0.047652     12.000000
  0.000000  0.000000  0.071478      2.000000
  0.033022  0.019065  0.071478     12.000000
  0.066044  0.038131  0.071478     12.000000
  0.099066  0.057196  0.071478     12.000000
  0.132089  0.076261  0.071478     12.000000
  0.165111  0.095327  0.071478      6.000000
  0.033022  0.057196  0.071478     12.000000
  0.066044  0.076261  0.071478     24.000000
  0.099066  0.095327  0.071478     24.000000
  0.132089  0.114392  0.071478     24.000000
  0.066044  0.114392  0.071478     12.000000
  0.099066  0.133457  0.071478     24.000000
  0.132089  0.152523  0.071478     12.000000
  0.099066  0.171588  0.071478     12.000000
  0.000000  0.000000  0.095303      1.000000
  0.033022  0.019065  0.095303      6.000000
  0.066044  0.038131  0.095303      6.000000
  0.099066  0.057196  0.095303      6.000000
  0.132089  0.076261  0.095303      6.000000
  0.165111  0.095327  0.095303      3.000000
  0.033022  0.057196  0.095303      6.000000
  0.066044  0.076261  0.095303     12.000000
  0.099066  0.095327  0.095303     12.000000
  0.132089  0.114392  0.095303     12.000000
  0.066044  0.114392  0.095303      6.000000
  0.099066  0.133457  0.095303     12.000000
  0.132089  0.152523  0.095303      6.000000
  0.099066  0.171588  0.095303      6.000000

 SYSTEM =  Pt-hcc
 POSCAR =  Pt

[...]
   0.30000000  0.10000000  0.00000000       0.015
   0.40000000  0.10000000  0.00000000       0.015
   0.20000000  0.20000000  0.00000000       0.007
   0.30000000  0.20000000  0.00000000       0.015
   0.40000000  0.20000000  0.00000000       0.007
   0.30000000  0.30000000  0.00000000       0.007
   0.00000000  0.00000000  0.12500000       0.003
   0.10000000 -0.00000000  0.12500000       0.015
   0.20000000 -0.00000000  0.12500000       0.015
   0.30000000 -0.00000000  0.12500000       0.015
   0.40000000 -0.00000000  0.12500000       0.015
   0.50000000 -0.00000000  0.12500000       0.007
   0.10000000  0.10000000  0.12500000       0.015
   0.20000000  0.10000000  0.12500000       0.030
   0.30000000  0.10000000  0.12500000       0.030
   0.40000000  0.10000000  0.12500000       0.030
   0.20000000  0.20000000  0.12500000       0.015
   0.30000000  0.20000000  0.12500000       0.030
   0.40000000  0.20000000  0.12500000       0.015
   0.30000000  0.30000000  0.12500000       0.015
   0.00000000  0.00000000  0.25000000       0.003
   0.10000000 -0.00000000  0.25000000       0.015
   0.20000000 -0.00000000  0.25000000       0.015
   0.30000000 -0.00000000  0.25000000       0.015
   0.40000000 -0.00000000  0.25000000       0.015
   0.50000000 -0.00000000  0.25000000       0.007
   0.10000000  0.10000000  0.25000000       0.015
   0.20000000  0.10000000  0.25000000       0.030
   0.30000000  0.10000000  0.25000000       0.030
   0.40000000  0.10000000  0.25000000       0.030
   0.20000000  0.20000000  0.25000000       0.015
   0.30000000  0.20000000  0.25000000       0.030
   0.40000000  0.20000000  0.25000000       0.015
   0.30000000  0.30000000  0.25000000       0.015
   0.00000000  0.00000000  0.37500000       0.003
   0.10000000 -0.00000000  0.37500000       0.015
   0.20000000 -0.00000000  0.37500000       0.015
   0.30000000 -0.00000000  0.37500000       0.015
   0.40000000 -0.00000000  0.37500000       0.015
   0.50000000 -0.00000000  0.37500000       0.007
   0.10000000  0.10000000  0.37500000       0.015
   0.20000000  0.10000000  0.37500000       0.030
   0.30000000  0.10000000  0.37500000       0.030
   0.40000000  0.10000000  0.37500000       0.030
   0.20000000  0.20000000  0.37500000       0.015
   0.30000000  0.20000000  0.37500000       0.030
   0.40000000  0.20000000  0.37500000       0.015
   0.30000000  0.30000000  0.37500000       0.015
   0.00000000  0.00000000  0.50000000       0.001
   0.10000000 -0.00000000  0.50000000       0.007
   0.20000000 -0.00000000  0.50000000       0.007
   0.30000000 -0.00000000  0.50000000       0.007
   0.40000000 -0.00000000  0.50000000       0.007
   0.50000000 -0.00000000  0.50000000       0.004
   0.10000000  0.10000000  0.50000000       0.007
   0.20000000  0.10000000  0.50000000       0.015
   0.30000000  0.10000000  0.50000000       0.015
   0.40000000  0.10000000  0.50000000       0.015
   0.20000000  0.20000000  0.50000000       0.007
   0.30000000  0.20000000  0.50000000       0.015
   0.40000000  0.20000000  0.50000000       0.007
   0.30000000  0.30000000  0.50000000       0.007

 position of ions in fractional coordinates (direct lattice)
   0.00000000  0.00000000  0.00000000
   0.33333333  0.66666667  0.50000000

 position of ions in cartesian coordinates  (Angst):
   0.00000000  0.00000000  0.00000000
   0.00000000  1.74837212  2.62320302

 k-point   1 :   0.0000 0.0000 0.0000  plane waves:     895
 k-point   2 :   0.1000-0.0000 0.0000  plane waves:     905
 k-point   3 :   0.2000-0.0000 0.0000  plane waves:     897
 k-point   4 :   0.3000-0.0000 0.0000  plane waves:     899
 k-point   5 :   0.4000-0.0000 0.0000  plane waves:     907
 k-point   6 :   0.5000-0.0000 0.0000  plane waves:     904
 k-point   7 :   0.1000 0.1000 0.0000  plane waves:     905
 k-point   8 :   0.2000 0.1000 0.0000  plane waves:     907
 k-point   9 :   0.3000 0.1000 0.0000  plane waves:     904
 k-point  10 :   0.4000 0.1000 0.0000  plane waves:     900
 k-point  11 :   0.2000 0.2000 0.0000  plane waves:     909
 k-point  12 :   0.3000 0.2000 0.0000  plane waves:     899
 k-point  13 :   0.4000 0.2000 0.0000  plane waves:     898
 k-point  14 :   0.3000 0.3000 0.0000  plane waves:     897
 k-point  15 :   0.0000 0.0000 0.1250  plane waves:     894
 k-point  16 :   0.1000-0.0000 0.1250  plane waves:     898
 k-point  17 :   0.2000-0.0000 0.1250  plane waves:     901
 k-point  18 :   0.3000-0.0000 0.1250  plane waves:     910
 k-point  19 :   0.4000-0.0000 0.1250  plane waves:     908
 k-point  20 :   0.5000-0.0000 0.1250  plane waves:     904
 k-point  21 :   0.1000 0.1000 0.1250  plane waves:     904
 k-point  22 :   0.2000 0.1000 0.1250  plane waves:     905
 k-point  23 :   0.3000 0.1000 0.1250  plane waves:     907
 k-point  24 :   0.4000 0.1000 0.1250  plane waves:     900
 k-point  25 :   0.2000 0.2000 0.1250  plane waves:     902
 k-point  26 :   0.3000 0.2000 0.1250  plane waves:     902
 k-point  27 :   0.4000 0.2000 0.1250  plane waves:     898
 k-point  28 :   0.3000 0.3000 0.1250  plane waves:     890
 k-point  29 :   0.0000 0.0000 0.2500  plane waves:     906
 k-point  30 :   0.1000-0.0000 0.2500  plane waves:     906
 k-point  31 :   0.2000-0.0000 0.2500  plane waves:     901
 k-point  32 :   0.3000-0.0000 0.2500  plane waves:     905
 k-point  33 :   0.4000-0.0000 0.2500  plane waves:     909
 k-point  34 :   0.5000-0.0000 0.2500  plane waves:     912
 k-point  35 :   0.1000 0.1000 0.2500  plane waves:     904
 k-point  36 :   0.2000 0.1000 0.2500  plane waves:     902
 k-point  37 :   0.3000 0.1000 0.2500  plane waves:     905
 k-point  38 :   0.4000 0.1000 0.2500  plane waves:     904
 k-point  39 :   0.2000 0.2000 0.2500  plane waves:     898
 k-point  40 :   0.3000 0.2000 0.2500  plane waves:     899
 k-point  41 :   0.4000 0.2000 0.2500  plane waves:     900
 k-point  42 :   0.3000 0.3000 0.2500  plane waves:     900
 k-point  43 :   0.0000 0.0000 0.3750  plane waves:     888
 k-point  44 :   0.1000-0.0000 0.3750  plane waves:     903
 k-point  45 :   0.2000-0.0000 0.3750  plane waves:     904
 k-point  46 :   0.3000-0.0000 0.3750  plane waves:     909
 k-point  47 :   0.4000-0.0000 0.3750  plane waves:     913
 k-point  48 :   0.5000-0.0000 0.3750  plane waves:     914
 k-point  49 :   0.1000 0.1000 0.3750  plane waves:     902
 k-point  50 :   0.2000 0.1000 0.3750  plane waves:     903
 k-point  51 :   0.3000 0.1000 0.3750  plane waves:     902
 k-point  52 :   0.4000 0.1000 0.3750  plane waves:     907
 k-point  53 :   0.2000 0.2000 0.3750  plane waves:     901
 k-point  54 :   0.3000 0.2000 0.3750  plane waves:     906
 k-point  55 :   0.4000 0.2000 0.3750  plane waves:     908
 k-point  56 :   0.3000 0.3000 0.3750  plane waves:     902
 k-point  57 :   0.0000 0.0000 0.5000  plane waves:     906
 k-point  58 :   0.1000-0.0000 0.5000  plane waves:     896
 k-point  59 :   0.2000-0.0000 0.5000  plane waves:     904
 k-point  60 :   0.3000-0.0000 0.5000  plane waves:     908
 k-point  61 :   0.4000-0.0000 0.5000  plane waves:     908
 k-point  62 :   0.5000-0.0000 0.5000  plane waves:     920
 k-point  63 :   0.1000 0.1000 0.5000  plane waves:     902
 k-point  64 :   0.2000 0.1000 0.5000  plane waves:     902
 k-point  65 :   0.3000 0.1000 0.5000  plane waves:     904
 k-point  66 :   0.4000 0.1000 0.5000  plane waves:     914
 k-point  67 :   0.2000 0.2000 0.5000  plane waves:     900
 k-point  68 :   0.3000 0.2000 0.5000  plane waves:     904
 k-point  69 :   0.4000 0.2000 0.5000  plane waves:     912
 k-point  70 :   0.3000 0.3000 0.5000  plane waves:     914

 maximum and minimum number of plane-waves per node :       920      888

 maximum number of plane-waves:       920
 maximum index in each direction:
   IXMAX=    5   IYMAX=    5   IZMAX=    9
   IXMIN=   -5   IYMIN=   -5   IZMIN=   -9

 serial   3D FFT for wavefunctions
 parallel 3D FFT for charge:
    minimum data exchange during FFTs selected (reduces bandwidth)

 Broyden mixing: mesh for mixing (old mesh)
   NGX = 11   NGY = 11   NGZ = 19
  (NGX  = 48   NGY  = 48   NGZ  = 72)
  gives a total of   2299 points

 initial charge density was supplied:
 charge density of overlapping atoms calculated
 number of electron      32.0000000 magnetization
 keeping initial charge density in first step

 Maximum index for augmentation-charges          696 (set IRDMAX)

 First call to EWALD:  gamma=   0.511
 Maximum number of real-space cells 3x 3x 2
 Maximum number of reciprocal cells 2x 2x 4

--------------------------------------- Iteration      1(   1)  ---------------------------------------

 eigenvalue-minimisations  :  3360
 total energy-change (2. order) : 0.1531152E+03  (-0.2231977E+04)
 number of electron      32.0000000 magnetization
 augmentation part       32.0000000 magnetization

 Free energy of the ion-electron system (eV)
  alpha Z        PSCENC =       230.33841594
  Ewald energy   TEWEN  =     -3867.39010959
  -Hartree energ DENC   =     -1008.24767026
  -exchange      EXHF   =         0.00000000
  -V(xc)+E(xc)   XCENC  =       125.10814127
  PAW double counting   =      4131.50523274    -4061.67189606
  entropy T*S    EENTRO =        -0.00126223
  eigenvalues    EBANDS =      -252.95529849
  atomic energy  EATOM  =      4856.42966544
  Solvation  Ediel_sol  =         0.00000000
  free energy    TOTEN  =       153.11521877 eV

  energy without entropy =      153.11648099  energy(sigma->0) =      153.11584988

[...]

 eigenvalue-minimisations  :  3816
 total energy-change (2. order) :-0.1627423E+03  (-0.1614330E+03)
 number of electron      32.0000000 magnetization
 augmentation part       32.0000000 magnetization

[...]

 Broyden mixing:
  rms(total) = 0.10353E+01    rms(broyden)= 0.10351E+01
  rms(prec ) = 0.13647E+01
  weight for this iteration     100.00

[...]

 eigenvalues of (default mixing * dielectric matrix)
  average eigenvalue GAMMA=   1.0705
  1.0705

[...]

 eigenvalue-minimisations  :  4200
 total energy-change (2. order) :-0.2949596E-04  (-0.2418419E-05)
 number of electron      31.9999992 magnetization
 augmentation part        8.2466415 magnetization

 Broyden mixing:
  rms(total) = 0.51262E-03    rms(broyden)= 0.51221E-03
  rms(prec ) = 0.69587E-03
  weight for this iteration     100.00

 eigenvalues of (default mixing * dielectric matrix)
  average eigenvalue GAMMA=   1.6575
  2.7887  2.3535  1.1670  0.9346  1.0434

[...]

--------------------------------------- Iteration      1(  11)  ---------------------------------------

 eigenvalue-minimisations  :  3960
 total energy-change (2. order) : 0.8473035E-07  (-0.8599212E-07)
 number of electron      31.9999992 magnetization
 augmentation part        8.2466415 magnetization

 Free energy of the ion-electron system (eV)
  alpha Z        PSCENC =       230.33841594
  Ewald energy   TEWEN  =     -3867.39010959
  -Hartree energ DENC   =      -970.83120651
  -exchange      EXHF   =         0.00000000
  -V(xc)+E(xc)   XCENC  =       123.50788671
  PAW double counting   =      4164.44560753    -4097.12405534
  entropy T*S    EENTRO =        -0.00897649
  eigenvalues    EBANDS =      -450.06371125
  atomic energy  EATOM  =      4856.42966544
  Solvation  Ediel_sol  =         0.00000000
  free energy    TOTEN  =       -10.69648355 eV

  energy without entropy =      -10.68750706  energy(sigma->0) =      -10.69199531

 average (electrostatic) potential at core
  the test charge radii are     0.9952
  (the norm of the test charge is              1.0000)
       1 -93.1696       2 -93.1696

 E-fermi :   6.6455     XC(G=0): -11.9905     alpha+bet :-12.5920

 Fermi energy:         6.6454820985

 k-point     1 :       0.0000    0.0000    0.0000
  band No.  band energies     occupation
      1     -45.0306      2.00000
      2     -45.0306      2.00000
      3     -45.0164      2.00000
      4     -45.0164      2.00000
      5     -45.0055      2.00000
      6     -44.8987      2.00000
      7      -0.4473      2.00000
      8       1.8883      2.00000
      9       4.1789      2.00000
     10       4.4869      2.00000
     11       4.4869      2.00000
     12       4.7096      2.00000
     13       4.7096      2.00000
     14       5.5293      2.00000
     15       5.5293      2.00000
     16       6.5186      1.99967
     17       6.5186      1.99967
     18       7.0856      0.00000
     19       9.8519      0.00000
     20      21.7704      0.00000
     21      21.9620      0.00000
     22      23.4940      0.00000
     23      24.6960      0.00000
     24      24.6960      0.00000

[...]

 k-point    70 :       0.3000    0.3000    0.5000
  band No.  band energies     occupation
      1     -45.1272      2.00000
      2     -45.1272      2.00000
      3     -45.1023      2.00000
      4     -45.1023      2.00000
      5     -44.9322      2.00000
      6     -44.9322      2.00000
      7       3.3456      2.00000
      8       3.3456      2.00000
      9       3.9204      2.00000
     10       3.9204      2.00000
     11       4.4091      2.00000
     12       4.4091      2.00000
     13       5.2038      2.00000
     14       5.2038      2.00000
     15       6.5824      1.92571
     16       6.5824      1.92571
     17      10.8146      0.00000
     18      10.8146      0.00000
     19      12.5101      0.00000
     20      12.5101      0.00000
     21      14.5051      0.00000
     22      14.5051      0.00000
     23      21.3288      0.00000
     24      21.3288      0.00000

 soft charge-density along one line, spin component           1
         0         1         2         3         4         5         6         7         8         9
 total charge-density along one line

------------------------ aborting loop because EDIFF is reached ----------------------------------------

 total charge

# of ion       s       p       d       tot
    1        0.281   6.018   7.073  13.371
    2        0.281   6.018   7.073  13.371
tot          0.561  12.035  14.146  26.742

  FORCE on cell =-STRESS in cart. coord.  units (eV):
  Direction    XX          YY          ZZ          XY          YZ          ZX
  Alpha Z   230.33842   230.33842   230.33842
  Ewald   -1254.45819 -1254.45819 -1358.47553     0.00000     0.00000    -0.00000
  Hartree   341.42086   341.42086   287.98193    -0.00000    -0.00000    -0.00000
  E(xc)    -169.23114  -169.23114  -169.43701    -0.00000     0.00000     0.00000
  Local      75.49422    75.49417   223.86781    -0.00004     0.00000     0.00000
  n-local   -69.70907   -71.22673   -71.86048   -12.12522     3.20649     3.19144
  augment   145.72087   145.72090   148.50755     0.00003     0.00000    -0.00000
  Kinetic   695.22667   689.48681   701.36289   -14.15539     2.72504     1.16423
  Fock        0.00000     0.00000     0.00000     0.00000     0.00000     0.00000
  Total      -8.82614    -8.82614    -7.71444     0.00000    -0.00000     0.00000
  in kB    -339.39047  -339.39047  -296.64245     0.00000    -0.00000     0.00000

 VOLUME and BASIS-vectors are now :
  energy-cutoff  :      450.00
  volume of cell :       41.67
      direct lattice vectors                 reciprocal lattice vectors
     3.028269334  0.000000000  0.000000000     0.330221618  0.190653540  0.000000000
    -1.514134667  2.622558173  0.000000000     0.000000000  0.381307080  0.000000000
     0.000000000  0.000000000  5.246406048     0.000000000  0.000000000  0.190606673

  length of vectors
     3.028269334  3.028269334  5.246406048     0.381307080  0.381307080  0.190606673

 FORCES acting on ions
    electron-ion (+dipol)            ewald-force                    non-local-force                 convergence-correction
   0.258E-07 -.149E-07 0.188E-12   0.161E-11 -.922E-12 -.566E-13   0.000E+00 0.000E+00 0.000E+00   -.731E-09 0.422E-09 -.485E-12
   -.258E-07 0.149E-07 -.331E-11   -.161E-11 0.928E-12 0.566E-13   0.000E+00 0.000E+00 0.000E+00   0.731E-09 -.422E-09 0.333E-12
   -.455E-10 0.270E-10 -.312E-11   -.429E-14 0.590E-14 0.000E+00   0.000E+00 0.000E+00 0.000E+00   -.452E-13 0.417E-14 -.152E-12

 POSITION                                       TOTAL-FORCE (eV/Angst)
      0.00000      0.00000      0.00000         0.000000     -0.000000      0.000000
      0.00000      1.74837      2.62320        -0.000000      0.000000      0.000000
    total drift:                               -0.000000      0.000000     -0.000000

  FREE ENERGIE OF THE ION-ELECTRON SYSTEM (eV)
  free  energy   TOTEN  =       -10.69648355 eV

  energy  without entropy=      -10.68750706  energy(sigma->0) =      -10.69199531

 reached required accuracy - stopping structural energy minimisation
 writing wavefunctions

 total charge

# of ion       s       p       d       tot
    1        0.281   6.018   7.073  13.371
    2        0.281   6.018   7.073  13.371
tot          0.561  12.035  14.146  26.742