 vasp.6.3.2 27Jun22 (build Aug 12 2022 00:53:59) complex

 executed on               tv2STD date 2024.11.30  15:55:50

 INCAR:
   SYSTEM = Pt-fcc
   NWRITE = 2    write-flag
   ISTART = 0    job   : 0-new, 1-cont, 2-samecut
   ICHARG = 2    charge: 0-wave, 1-file, 2-atom, >10-const
   INIWAV = 1    electr: 0-lowe 1-rand  2-diag
   ENCUT = 425.0     energy cutoff in eV
   PREC = accurate      normal | accurate
   ADDGRID = .FALSE.  (use fine grid)
   NELM = 100     number of ELM steps
   EDIFF = 1E-06    energy stopping-criterion for ELM
   LREAL = .FALSE.      real-space projection (.FALSE., .TRUE., On, Auto)
   ALGO = Normal     Normal, Fast, Very_Fast
   LWAVE = .FALSE.
   LCHARG = .FALSE.
   NSW = 0       max number of geometry steps
   IBRION = -1     ionic relax: 0-MD, 1-quasi-Newton, 2-CG, 3-Damped MD
   EDIFFG = -0.02  force (eV/A) stopping-criterion for geometry steps
   ISIF = 2     (1:force\=y stress\=trace only ions\=y shape\=n volume\=n)
   ISYM = 1     (1-use symmetry, 0-no symmetry)
   ISMEAR = 0     (-1-Fermi, 1-Methfessel/Paxton)
   SIGMA = 0.05   broadening in eV

 POTCAR:    PAW_PBE Pt_pv 12Dec2005
 POTCAR:    PAW_PBE Pt_pv 12Dec2005
   VRHFIN =Pt: 5ps1d9

   TITEL  = PAW_PBE Pt_pv 12Dec2005
   POMASS =  195.080; ZVAL   =   16.000    mass and valenz
   ENMAX  =  294.607; ENMIN  =  220.955 eV

  PAW_PBE Pt_pv 12Dec2005               :

 POSCAR: Pt
  positions in cartesian coordinates
 exchange correlation table for  LEXCH =        8
   RHO(1)=    0.500       N(1)  =     2000
   RHO(2)=  100.500       N(2)  =     4000

 ion  position               nearest neighbor table
   1  0.000  0.000  0.000-

  LATTYP: Found a face centered cubic cell.
 ALAT       =     3.9400000000

  Lattice vectors:

 A1 = (   0.0000000000,   1.9700000000,   1.9700000000)
 A2 = (   1.9700000000,   0.0000000000,   1.9700000000)
 A3 = (   1.9700000000,   1.9700000000,   0.0000000000)

Analysis of symmetry for initial positions (statically):
 Subroutine PRICEL returns:
 Original cell was already a primitive cell.

 Routine SETGRP: Setting up the symmetry group for a
 face centered cubic supercell.

 Subroutine GETGRP returns: Found 48 space group operations
 (whereof 48 operations were pure point group operations)
 out of a pool of 48 trial point group operations.

The static configuration has the point symmetry O_h .

Analysis of symmetry for dynamics (positions and initial velocities):
 Subroutine PRICEL returns:
 Original cell was already a primitive cell.

 Routine SETGRP: Setting up the symmetry group for a
 face centered cubic supercell.

 Subroutine GETGRP returns: Found 48 space group operations
 (whereof 48 operations were pure point group operations)
 out of a pool of 48 trial point group operations.

The dynamic configuration has the point symmetry O_h .

 Subroutine INISYM returns: Found 48 space group operations
 (whereof 48 operations are pure point group operations),
 and found     1 'primitive' translations

                                     Primitive cell

  volume of cell :      15.2907

  direct lattice vectors                    reciprocal lattice vectors
     0.000000000  1.970000000  1.970000000    -0.253807107  0.253807107  0.253807107
     1.970000000  0.000000000  1.970000000     0.253807107 -0.253807107  0.253807107
     1.970000000  1.970000000  0.000000000     0.253807107  0.253807107 -0.253807107

  length of vectors
     2.786000718  2.786000718  2.786000718     0.439606804  0.439606804  0.439606804

  position of ions in fractional coordinates (direct lattice)
     0.000000000  0.000000000  0.000000000

  ion indices of the primitive-cell ions
   primitive index   ion index
                 1           1

 KPOINTS: Automatic mesh

Automatic generation of k-mesh.
 Grid dimensions read from file:
 generate k-points for:    4    4    4

 Generating k-lattice:

  Cartesian coordinates                     Fractional coordinates (reciprocal lattice)
    -0.063451777  0.063451777  0.063451777     0.250000000  0.000000000  0.000000000
     0.063451777 -0.063451777  0.063451777     0.000000000  0.250000000  0.000000000
     0.063451777  0.063451777 -0.063451777     0.000000000  0.000000000  0.250000000

  Length of vectors
     0.109901701  0.109901701  0.109901701

  Shift w.r.t. Gamma in fractional coordinates (k-lattice)
     0.500000000  0.500000000  0.500000000

 Subroutine IBZKPT returns following result:

 Found     10 irreducible k-points:

 Following reciprocal coordinates:
            Coordinates               Weight
  0.125000  0.125000  0.125000      8.000000
  0.375000  0.125000  0.125000     24.000000
 -0.375000  0.125000  0.125000     24.000000
 -0.125000  0.125000  0.125000     24.000000
  0.375000  0.375000  0.125000     24.000000
 -0.375000  0.375000  0.125000     48.000000
 -0.125000  0.375000  0.125000     48.000000
 -0.375000 -0.375000  0.125000     24.000000
  0.375000  0.375000  0.375000      8.000000
 -0.375000  0.375000  0.375000     24.000000

 Following cartesian coordinates:
            Coordinates               Weight
  0.031726  0.031726  0.031726      8.000000
 -0.031726  0.095178  0.095178     24.000000
  0.158629 -0.095178 -0.095178     24.000000
  0.095178 -0.031726 -0.031726     24.000000
  0.031726  0.031726  0.158629     24.000000
  0.222081 -0.158629 -0.031726     48.000000
  0.158629 -0.095178  0.031726     48.000000
  0.031726  0.031726 -0.222081     24.000000
  0.095178  0.095178  0.095178      8.000000
  0.285533 -0.095178 -0.095178     24.000000

 SYSTEM =  Pt-fcc
 POSCAR =  Pt

 Startparameter for this run:
   NWRITE =      2    write-flag & timer
   PREC   = accura    normal or accurate (medium, high low for compatibility)
   ISTART =      0    job   : 0-new  1-cont  2-samecut
   ICHARG =      2    charge: 1-file 2-atom 10-const
   ISPIN  =      1    spin polarized calculation?
   LNONCOLLINEAR =      F non collinear calculations
   LSORBIT =      F    spin-orbit coupling
   INIWAV =      1    electr: 0-lowe 1-rand  2-diag
   LASPH  =      F    aspherical Exc in radial PAW
 Electronic Relaxation 1
   ENCUT  =  425.0 eV  31.24 Ry    5.59 a.u.   4.68  4.68  4.68*2*pi/ulx,y,z
   ENINI  =  425.0     initial cutoff
   ENAUG  =  527.0 eV  augmentation charge cutoff
   NELM   =    100;   NELMIN=  2; NELMDL= -5     # of ELM steps
   EDIFF  = 0.1E-05   stopping-criterion for ELM
   LREAL  =      F    real-space projection
   NLSPLINE    = F    spline interpolate recip. space projectors
   LCOMPAT=      F    compatible to vasp.4.4
   GGA_COMPAT  = T    GGA compatible to vasp.4.4-vasp.4.6
   LMAXPAW     = -100 max onsite density
   LMAXMIX     =    2 max onsite mixed and CHGCAR
   VOSKOWN=      0    Vosko Wilk Nusair interpolation
   ROPT   =    0.00000
 Ionic relaxation
   EDIFFG = -.2E-01   stopping-criterion for IOM
   NSW    =      0    number of steps for IOM
   NBLOCK =      1;   KBLOCK =      1    inner block; outer block
   IBRION =     -1    ionic relax: 0-MD 1-quasi-New 2-CG
   NFREE  =      0    steps in history (QN), initial steepest desc. (CG)
   ISIF   =      2    stress and relaxation
   IWAVPR =     10    prediction:  0-non 1-charg 2-wave 3-comb
   ISYM   =      1    0-nonsym 1-usesym 2-fastsym
   LCORR  =      T    Harris-Foulkes like correction to forces

   POTIM  = 0.5000    time-step for ionic-motion
   TEIN   =    0.0    initial temperature
   TEBEG  =    0.0;   TEEND  =   0.0 temperature during run
   SMASS  =  -3.00    Nose mass-parameter (am)
   estimated Nose-frequenzy (Omega)   =  0.10E-29 period in steps = 0.13E+47 mass=  -0.177E-27a.u.
   SCALEE = 1.0000    scale energy and forces
   NPACO  =    256;   APACO  = 10.0  distance and # of slots for P.C.
   PSTRESS=    0.0 pullay stress

  Mass of Ions in am
   POMASS = 195.08
  Ionic Valenz
   ZVAL   =  16.00
  Atomic Wigner-Seitz radii
  virtual crystal weights
   VCA    =   1.00
   NELECT =      16.0000    total number of electrons
   NUPDOWN=      -1.0000    fix difference up-down

 DOS related values:
   EMIN   =  10.00;   EMAX   =-10.00  energy-range for DOS
   EFERMI =   0.00
   ISMEAR =     0;   SIGMA  =   0.05  broadening in eV -4-tet -1-fermi 0-gaus

 Electronic relaxation 2 (details)
   IALGO  =     38    algorithm
   LDIAG  =      T    sub-space diagonalisation (order eigenvalues)
   LSUBROT=      F    optimize rotation matrix (better conditioning)
   TURBO    =      0    0=normal 1=particle mesh
   IRESTART =      0    0=no restart 2=restart with 2 vectors
   NREBOOT  =      0    no. of reboots
   NMIN     =      0    reboot dimension
   EREF     =   0.00    reference energy to select bands
   IMIX   =      4    mixing-type and parameters
     AMIX     =   0.40;   BMIX     =  1.00
     AMIX_MAG =   1.60;   BMIX_MAG =  1.00
     AMIN     =   0.10
     WC   =   100.;   INIMIX=   1;  MIXPRE=   1;  MAXMIX= -45

 Intra band minimization:
   WEIMIN = 0.0000     energy-eigenvalue tresh-hold
   EBREAK =  0.10E-07  absolut break condition
   DEPER  =   0.30     relativ break condition

   TIME   =   0.40     timestep for ELM

  volume/ion in A,a.u.               =      15.29       103.19
  Fermi-wavevector in a.u.,A,eV,Ry     =   1.662029  3.140779 37.583923  2.762340
  Thomas-Fermi vector in A             =   2.748990

 Write flags
   LWAVE        =      F    write WAVECAR
   LDOWNSAMPLE  =      F    k-point downsampling of WAVECAR
   LCHARG       =      F    write CHGCAR
   LVTOT        =      F    write LOCPOT, total local potential
   LVHAR        =      F    write LOCPOT, Hartree potential only
   LELF         =      F    write electronic localiz. function (ELF)
   LORBIT       =      0    0 simple, 1 ext, 2 COOP (PROOUT), +10 PAW based schemes

 Dipole corrections
   LMONO  =      F    monopole corrections only (constant potential shift)
   LDIPOL =      F    correct potential (dipole corrections)
   IDIPOL =      0    1-x, 2-y, 3-z, 4-all directions
   EPSILON=  1.0000000 bulk dielectric constant

 Exchange correlation treatment:
   GGA     =    --    GGA type
   VOSKOWN =     0    Vosko Wilk Nusair interpolation
   LHFCALC =     F    Hartree Fock is set to
   LHFONE  =     F    Hartree Fock one center treatment
   AEXX    =    0.0000 exact exchange contribution

 Linear response parameters
   LEPSILON=     F    determine dielectric tensor
   LRPA    =     F    only Hartree local field effects (RPA)
   LNABLA  =     F    use nabla operator in PAW spheres
   LVEL    =     F    velocity operator in full k-point grid
   CSHIFT  =0.1000    complex shift for real part using Kramers Kronig
   OMEGAMAX=  -1.0    maximum frequency
   DEG_THRESHOLD= 0.2000000E-02 threshold for treating states as degnerate
   RTIME   =   -0.100 relaxation time in fs
  (WPLASMAI=    0.000 imaginary part of plasma frequency in eV, 0.658/RTIME)
   DFIELD  = 0.0000000 0.0000000 0.0000000 field for delta impulse in time

  Optional k-point grid parameters
   LKPOINTS_OPT  =     F    use optional k-point grid
   KPOINTS_OPT_MODE=     1    mode for optional k-point grid

 Orbital magnetization related:
   ORBITALMAG=     F  switch on orbital magnetization
   LCHIMAG   =     F  perturbation theory with respect to B field
   DQ        =  0.001000  dq finite difference perturbation B field
   LLRAUG    =     F  two centre corrections for induced B field

 Static calculation
 charge density and potential will be updated during run
 non-spin polarized calculation
 Variant of blocked Davidson
 Davidson routine will perform the subspace rotation
 perform sub-space diagonalisation
    after iterative eigenvector-optimisation
 modified Broyden-mixing scheme, WC =      100.0
 initial mixing is a Kerker type mixing with AMIX =  0.4000 and BMIX =      1.0000
 Hartree-type preconditioning will be used
 using additional bands           16
 reciprocal scheme for non local part
 use partial core corrections
 calculate Harris-corrections to forces
   (improved forces if not selfconsistent)
 use gradient corrections
 use of overlap-Matrix (Vanderbilt PP)
 Gauss-broadening in eV      SIGMA  =   0.05

  energy-cutoff  :      425.00
  volume of cell :       15.29
      direct lattice vectors                 reciprocal lattice vectors
     0.000000000  1.970000000  1.970000000    -0.253807107  0.253807107  0.253807107
     1.970000000  0.000000000  1.970000000     0.253807107 -0.253807107  0.253807107
     1.970000000  1.970000000  0.000000000     0.253807107  0.253807107 -0.253807107

[...]

 k-points in units of 2pi/SCALE and weight: Automatic mesh
   0.03172589  0.03172589  0.03172589       0.031
  -0.03172589  0.09517766  0.09517766       0.094
   0.15862944 -0.09517766 -0.09517766       0.094
   0.09517766 -0.03172589 -0.03172589       0.094
   0.03172589  0.03172589  0.15862944       0.094
   0.22208122 -0.15862944 -0.03172589       0.188
   0.15862944 -0.09517766  0.03172589       0.188
   0.03172589  0.03172589 -0.22208122       0.094
   0.09517766  0.09517766  0.09517766       0.031
   0.28553299 -0.09517766 -0.09517766       0.094

 k-points in reciprocal lattice and weights: Automatic mesh
   0.12500000  0.12500000  0.12500000       0.031
   0.37500000  0.12500000  0.12500000       0.094
  -0.37500000  0.12500000  0.12500000       0.094
  -0.12500000  0.12500000  0.12500000       0.094
   0.37500000  0.37500000  0.12500000       0.094
  -0.37500000  0.37500000  0.12500000       0.188
  -0.12500000  0.37500000  0.12500000       0.188
  -0.37500000 -0.37500000  0.12500000       0.094
   0.37500000  0.37500000  0.37500000       0.031
  -0.37500000  0.37500000  0.37500000       0.094

 position of ions in fractional coordinates (direct lattice)
   0.00000000  0.00000000  0.00000000

 position of ions in cartesian coordinates  (Angst):
   0.00000000  0.00000000  0.00000000

 k-point   1 :   0.1250 0.1250 0.1250  plane waves:     310
 k-point   2 :   0.3750 0.1250 0.1250  plane waves:     304
 k-point   3 :  -0.3750 0.1250 0.1250  plane waves:     304
 k-point   4 :  -0.1250 0.1250 0.1250  plane waves:     306
 k-point   5 :   0.3750 0.3750 0.1250  plane waves:     307
 k-point   6 :  -0.3750 0.3750 0.1250  plane waves:     299
 k-point   7 :  -0.1250 0.3750 0.1250  plane waves:     305
 k-point   8 :  -0.3750-0.3750 0.1250  plane waves:     306
 k-point   9 :   0.3750 0.3750 0.3750  plane waves:     302
 k-point  10 :  -0.3750 0.3750 0.3750  plane waves:     299

 maximum and minimum number of plane-waves per node :       310      299

 maximum number of plane-waves:       310
 maximum index in each direction:
   IXMAX=    5   IYMAX=    5   IZMAX=    4
   IXMIN=   -5   IYMIN=   -5   IZMIN=   -5

 serial   3D FFT for wavefunctions
 parallel 3D FFT for charge:
    minimum data exchange during FFTs selected (reduces bandwidth)

 Broyden mixing: mesh for mixing (old mesh)
   NGX =  9   NGY =  9   NGZ =  9
  (NGX  = 40   NGY  = 40   NGZ  = 40)
  gives a total of    729 points

 initial charge density was supplied:
 charge density of overlapping atoms calculated
 number of electron      16.0000000 magnetization
 keeping initial charge density in first step

 Maximum index for augmentation-charges          868 (set IRDMAX)

 First call to EWALD:  gamma=   0.714
 Maximum number of real-space cells 3x 3x 3
 Maximum number of reciprocal cells 3x 3x 3

--------------------------------------- Iteration      1(   1)  ---------------------------------------

 eigenvalue-minimisations  :   528
 total energy-change (2. order) : 0.1817378E+02  (-0.1205374E+04)
 number of electron      16.0000000 magnetization
 augmentation part       16.0000000 magnetization

 Free energy of the ion-electron system (eV)
  alpha Z        PSCENC =       156.91311333
  Ewald energy   TEWEN  =     -2144.84590610
  -Hartree energ DENC   =      -397.82488157
  -exchange      EXHF   =         0.00000000
  -V(xc)+E(xc)   XCENC  =        63.81680431
  PAW double counting   =      2065.75261637    -2030.83594803
  entropy T*S    EENTRO =        -0.00241035
  eigenvalues    EBANDS =      -122.99461861
  atomic energy  EATOM  =      2428.19501064
  Solvation  Ediel_sol  =         0.00000000
  free energy    TOTEN  =        18.17378000 eV

  energy without entropy =       18.17619035  energy(sigma->0) =       18.17498518

[...]

 eigenvalue-minimisations  :   600
 total energy-change (2. order) :-0.2455918E+02  (-0.2437675E+02)
 number of electron      16.0000000 magnetization
 augmentation part       16.0000000 magnetization

[...]

 Broyden mixing:
  rms(total) = 0.14945E+01    rms(broyden)= 0.14943E+01
  rms(prec ) = 0.20726E+01
  weight for this iteration     100.00

[...]

 eigenvalues of (default mixing * dielectric matrix)
  average eigenvalue GAMMA=   1.4408
  1.4408

[...]

 eigenvalue-minimisations  :   672
 total energy-change (2. order) :-0.8166438E-05  (-0.5458487E-06)
 number of electron      16.0000003 magnetization
 augmentation part        4.1088743 magnetization

 Broyden mixing:
  rms(total) = 0.60129E-03    rms(broyden)= 0.60105E-03
  rms(prec ) = 0.60538E-03
  weight for this iteration     100.00

 eigenvalues of (default mixing * dielectric matrix)
  average eigenvalue GAMMA=   1.6607
  2.7236  2.3587  1.2114  1.0904  0.9194

[...]

--------------------------------------- Iteration      1(  11)  ---------------------------------------

 eigenvalue-minimisations  :   312
 total energy-change (2. order) : 0.2211909E-06  (-0.7245763E-09)
 number of electron      16.0000003 magnetization
 augmentation part        4.1088743 magnetization

 Free energy of the ion-electron system (eV)
  alpha Z        PSCENC =       156.91311333
  Ewald energy   TEWEN  =     -2144.84590610
  -Hartree energ DENC   =      -377.70338581
  -exchange      EXHF   =         0.00000000
  -V(xc)+E(xc)   XCENC  =        62.92802007
  PAW double counting   =      2342.89527527    -2310.82316383
  entropy T*S    EENTRO =        -0.00518131
  eigenvalues    EBANDS =      -163.60952103
  atomic energy  EATOM  =      2428.19501064
  Solvation  Ediel_sol  =         0.00000000
  free energy    TOTEN  =        -6.05573876 eV

  energy without entropy =       -6.05055746  energy(sigma->0) =       -6.05314811

 average (electrostatic) potential at core
  the test charge radii are     0.9952
  (the norm of the test charge is              1.0000)
       1 -89.0283

 E-fermi :  11.7811     XC(G=0): -13.9222     alpha+bet :-17.1560

 Fermi energy:        11.7811421951

 k-point     1 :       0.1250    0.1250    0.1250
  band No.  band energies     occupation
      1     -40.8216      2.00000
      2     -40.7646      2.00000
      3     -40.7646      2.00000
      4       2.3014      2.00000
      5       7.8095      2.00000
      6       8.2605      2.00000
      7       8.2605      2.00000
      8      10.0677      2.00000
      9      10.0677      2.00000
     10      27.3008      0.00000
     11      28.8800      0.00000
     12      32.2426      0.00000
     13      32.2426      0.00000
     14      37.8142      0.00000
     15      40.5828      0.00000
     16      40.5828      0.00000
     17      40.7273      0.00000
     18      46.4556      0.00000
     19      46.4556      0.00000
     20      48.9298      0.00000
     21      52.4067      0.00000
     22      52.8947      0.00000
     23      52.8947      0.00000
     24      60.4371      0.00000

[...]

 k-point    10 :      -0.3750    0.3750    0.3750
  band No.  band energies     occupation
      1     -41.1138      2.00000
      2     -40.9800      2.00000
      3     -40.8523      2.00000
      4       5.9897      2.00000
      5       7.1270      2.00000
      6       8.1710      2.00000
      7       9.3666      2.00000
      8      11.1794      2.00000
      9      15.5840      0.00000
     10      18.8909      0.00000
     11      24.0371      0.00000
     12      29.4237      0.00000
     13      29.6298      0.00000
     14      37.7826      0.00000
     15      39.0252      0.00000
     16      42.0208      0.00000
     17      47.8910      0.00000
     18      48.0435      0.00000
     19      48.5091      0.00000
     20      51.5260      0.00000
     21      51.8602      0.00000
     22      52.4213      0.00000
     23      55.7844      0.00000
     24      59.1658      0.00000

 soft charge-density along one line, spin component           1
         0         1         2         3         4         5         6         7         8         9
 total charge-density along one line

------------------------ aborting loop because EDIFF is reached ----------------------------------------

  FORCE on cell =-STRESS in cart. coord.  units (eV):
  Direction    XX          YY          ZZ          XY          YZ          ZX
  Alpha Z   156.91311   156.91311   156.91311
  Ewald    -714.94866  -714.94866  -714.94866    -0.00000     0.00000     0.00000
  Hartree   125.90053   125.90053   125.90053     0.00000     0.00000     0.00000
  E(xc)     -85.48640   -85.48640   -85.48640     0.00000     0.00000     0.00000
  Local     125.03658   125.03658   125.03658     0.00000     0.00000     0.00000
  n-local   -31.27571   -26.55566   -30.16088     4.37190    -2.84630     0.81407
  augment    73.35336    73.35336    73.35336     0.00000     0.00000     0.00000
  Kinetic   345.75621   353.90229   346.98562     5.94377     0.53410     6.95323
  Fock        0.00000     0.00000     0.00000     0.00000     0.00000     0.00000
  Total       0.31915     0.31915     0.31915    -0.00000     0.00000    -0.00000
  in kB      33.44080    33.44080    33.44080    -0.00000     0.00000    -0.00000

 VOLUME and BASIS-vectors are now :
  energy-cutoff  :      425.00
  volume of cell :       15.29
      direct lattice vectors                 reciprocal lattice vectors
     0.000000000  1.970000000  1.970000000    -0.253807107  0.253807107  0.253807107
     1.970000000  0.000000000  1.970000000     0.253807107 -0.253807107  0.253807107
     1.970000000  1.970000000  0.000000000     0.253807107  0.253807107 -0.253807107

  length of vectors
     2.786000718  2.786000718  2.786000718     0.439606804  0.439606804  0.439606804

 FORCES acting on ions
    electron-ion (+dipol)            ewald-force                    non-local-force                 convergence-correction
   -.671E-14 -.723E-14 -.318E-15   -.456E-14 -.897E-14 -.116E-13   0.000E+00 0.000E+00 0.000E+00   -.222E-13 -.674E-13 -.450E-14
   -.671E-14 -.723E-14 -.318E-15   -.456E-14 -.897E-14 -.116E-13   0.000E+00 0.000E+00 0.000E+00   -.222E-13 -.674E-13 -.450E-14

 POSITION                                       TOTAL-FORCE (eV/Angst)
      0.00000      0.00000      0.00000         0.000000      0.000000      0.000000
    total drift:                               -0.000000     -0.000000     -0.000000

  FREE ENERGIE OF THE ION-ELECTRON SYSTEM (eV)
  free  energy   TOTEN  =        -6.05573876 eV

  energy  without entropy=       -6.05055746  energy(sigma->0) =       -6.05314811