 vasp.6.3.2 27Jun22 (build Aug 12 2022 00:53:59) complex

 executed on               tv2STD date 2024.12.02  16:51:46

 INCAR:
   SYSTEM = Co-hcc
   NWRITE = 2    write-flag
   ISTART = 0    job   : 0-new, 1-cont, 2-samecut
   ICHARG = 2    charge: 0-wave, 1-file, 2-atom, >10-const
   INIWAV = 1    electr: 0-lowe 1-rand  2-diag
   ENCUT = 425.0     energy cutoff in eV
   PREC = Accurate      normal | accurate
   ADDGRID = .FALSE.  (use fine grid)
   NELM = 100     number of ELM steps
   EDIFF = 1E-06    energy stopping-criterion for ELM
   LREAL = .FALSE.      real-space projection (.FALSE., .TRUE., On, Auto)
   ALGO = Normal     Normal, Fast, Very_Fast
   LWAVE = .FALSE.
   LCHARG = .FALSE.
   NSW = 0       max number of geometry steps
   IBRION = -1     ionic relax: 0-MD, 1-quasi-Newton, 2-CG, 3-Damped MD
   EDIFFG = -0.02  force (eV/A) stopping-criterion for geometry steps
   ISIF = 2     (1:force\=y stress\=trace only ions\=y shape\=n volume\=n)
   ISYM = 1     (1-use symmetry, 0-no symmetry)
   ISMEAR = 0     (-1-Fermi, 1-Methfessel/Paxton)
   SIGMA = 0.05   broadening in eV
   LORBIT = 11
   NPAR = 4
   ISPIN = 2
   MAGMOM = 2*3

 POTCAR:    PAW_PBE Co 02Aug2007
 POTCAR:    PAW_PBE Co 02Aug2007
   VRHFIN =Co: d8 s1

   TITEL  = PAW_PBE Co 02Aug2007
   POMASS =   58.933; ZVAL   =    9.000    mass and valenz
   ENMAX  =  267.968; ENMIN  =  200.976 eV

  PAW_PBE Co 02Aug2007                  :

 POSCAR: Co hcp
  positions in direct lattice
 exchange correlation table for  LEXCH =        8
   RHO(1)=    0.500       N(1)  =     2000
   RHO(2)=  100.500       N(2)  =     4000

 ion  position               nearest neighbor table
   1  0.333  0.667  0.250-   2 2.47   2 2.47   2 2.47   2 2.47   2 2.47   2 2.47
   2  0.667  0.333  0.750-   1 2.47   1 2.47   1 2.47   1 2.47   1 2.47   1 2.47

  LATTYP: Found a hexagonal cell.
 ALAT       =     2.4719999032
 C/A-ratio  =     1.6266764715

  Lattice vectors:

 A1 = (   1.2359999516,  -2.1408147143,   0.0000000000)
 A2 = (   1.2359999516,   2.1408147143,   0.0000000000)
 A3 = (   0.0000000000,   0.0000000000,   4.0211440800)

Analysis of symmetry for initial positions (statically):
 Subroutine PRICEL returns:
 Original cell was already a primitive cell.

 Routine SETGRP: Setting up the symmetry group for a
 hexagonal supercell.

 Subroutine GETGRP returns: Found 24 space group operations
 (whereof 12 operations were pure point group operations)
 out of a pool of 24 trial point group operations.

The static configuration has the point symmetry D_3d.
 The point group associated with its full space group is D_6h.

Analysis of symmetry for dynamics (positions and initial velocities):
 Subroutine PRICEL returns:
 Original cell was already a primitive cell.

[...]

The dynamic configuration has the point symmetry D_3d.
 The point group associated with its full space group is D_6h.

Analysis of structural, dynamic, and magnetic symmetry:
 Subroutine PRICEL returns:
 Original cell was already a primitive cell.

 Routine SETGRP: Setting up the symmetry group for a
 hexagonal supercell.

 Subroutine GETGRP returns: Found 24 space group operations
 (whereof 12 operations were pure point group operations)
 out of a pool of 24 trial point group operations.

The overall configuration has the point symmetry D_3d.
 The point group associated with its full space group is D_6h.

 Subroutine INISYM returns: Found 24 space group operations
 (whereof 12 operations are pure point group operations),
 and found     1 'primitive' translations

                                     Primitive cell

  volume of cell :      21.2803

  direct lattice vectors                    reciprocal lattice vectors
     1.235999952 -2.140814714  0.000000000     0.404530760 -0.233555943  0.000000000
     1.235999952  2.140814714  0.000000000     0.404530760  0.233555943  0.000000000
     0.000000000  0.000000000  4.021144080     0.000000000  0.000000000  0.248685444

  length of vectors
     2.471999903  2.471999903  4.021144080     0.467111887  0.467111887  0.248685444

  position of ions in fractional coordinates (direct lattice)
     0.333333333  0.666666667  0.250000000
     0.666666667  0.333333333  0.750000000

  ion indices of the primitive-cell ions
   primitive index   ion index
                 1           1
                 2           2

 KPOINTS: Automatic mesh

Automatic generation of k-mesh.
 Grid dimensions read from file:
 generate k-points for:    8    8    6

 Generating k-lattice:

  Cartesian coordinates                     Fractional coordinates (reciprocal lattice)
     0.050566345 -0.029194493  0.000000000     0.125000000 -0.000000000  0.000000000
     0.050566345  0.029194493  0.000000000    -0.000000000  0.125000000  0.000000000
     0.000000000  0.000000000  0.041447574     0.000000000  0.000000000  0.166666667

  Length of vectors
     0.058388986  0.058388986  0.041447574

  Shift w.r.t. Gamma in fractional coordinates (k-lattice)
     0.000000000  0.000000000  0.000000000

 Subroutine IBZKPT returns following result:

 Found     40 irreducible k-points:

 Following reciprocal coordinates:
            Coordinates               Weight
  0.000000  0.000000  0.000000      1.000000
  0.125000  0.000000  0.000000      6.000000
  0.250000  0.000000  0.000000      6.000000
  0.375000  0.000000  0.000000      6.000000
  0.500000  0.000000  0.000000      3.000000
  0.125000  0.125000  0.000000      6.000000
  0.250000  0.125000  0.000000     12.000000
  0.375000  0.125000  0.000000     12.000000
  0.250000  0.250000  0.000000      6.000000
  0.375000  0.250000  0.000000      6.000000
  0.000000  0.000000  0.166667      2.000000
  0.125000  0.000000  0.166667     12.000000
  0.250000  0.000000  0.166667     12.000000
  0.375000  0.000000  0.166667     12.000000
  0.500000  0.000000  0.166667      6.000000
  0.125000  0.125000  0.166667     12.000000
  0.250000  0.125000  0.166667     24.000000
  0.375000  0.125000  0.166667     24.000000
  0.250000  0.250000  0.166667     12.000000
  0.375000  0.250000  0.166667     12.000000
  0.000000  0.000000  0.333333      2.000000
  0.125000  0.000000  0.333333     12.000000
  0.250000  0.000000  0.333333     12.000000
  0.375000  0.000000  0.333333     12.000000
  0.500000  0.000000  0.333333      6.000000
  0.125000  0.125000  0.333333     12.000000
  0.250000  0.125000  0.333333     24.000000
  0.375000  0.125000  0.333333     24.000000
  0.250000  0.250000  0.333333     12.000000
  0.375000  0.250000  0.333333     12.000000
  0.000000  0.000000  0.500000      1.000000
  0.125000  0.000000  0.500000      6.000000
  0.250000  0.000000  0.500000      6.000000
  0.375000  0.000000  0.500000      6.000000
  0.500000  0.000000  0.500000      3.000000
  0.125000  0.125000  0.500000      6.000000
  0.250000  0.125000  0.500000     12.000000
  0.375000  0.125000  0.500000     12.000000
  0.250000  0.250000  0.500000      6.000000
  0.375000  0.250000  0.500000      6.000000

 Following cartesian coordinates:
            Coordinates               Weight
  0.000000  0.000000  0.000000      1.000000
  0.050566 -0.029194  0.000000      6.000000
  0.101133 -0.058389  0.000000      6.000000
  0.151699 -0.087583  0.000000      6.000000
  0.202265 -0.116778  0.000000      3.000000
  0.101133  0.000000  0.000000      6.000000
  0.151699 -0.029194  0.000000     12.000000
  0.202265 -0.058389  0.000000     12.000000
  0.202265  0.000000  0.000000      6.000000
  0.252832 -0.029194  0.000000      6.000000
  0.000000  0.000000  0.041448      2.000000
  0.050566 -0.029194  0.041448     12.000000
  0.101133 -0.058389  0.041448     12.000000
  0.151699 -0.087583  0.041448     12.000000
  0.202265 -0.116778  0.041448      6.000000
  0.101133  0.000000  0.041448     12.000000
  0.151699 -0.029194  0.041448     24.000000
  0.202265 -0.058389  0.041448     24.000000
  0.202265  0.000000  0.041448     12.000000
  0.252832 -0.029194  0.041448     12.000000
  0.000000  0.000000  0.082895      2.000000
  0.050566 -0.029194  0.082895     12.000000
  0.101133 -0.058389  0.082895     12.000000
  0.151699 -0.087583  0.082895     12.000000
  0.202265 -0.116778  0.082895      6.000000
  0.101133  0.000000  0.082895     12.000000
  0.151699 -0.029194  0.082895     24.000000
  0.202265 -0.058389  0.082895     24.000000
  0.202265  0.000000  0.082895     12.000000
  0.252832 -0.029194  0.082895     12.000000
  0.000000  0.000000  0.124343      1.000000
  0.050566 -0.029194  0.124343      6.000000
  0.101133 -0.058389  0.124343      6.000000
  0.151699 -0.087583  0.124343      6.000000
  0.202265 -0.116778  0.124343      3.000000
  0.101133  0.000000  0.124343      6.000000
  0.151699 -0.029194  0.124343     12.000000
  0.202265 -0.058389  0.124343     12.000000
  0.202265  0.000000  0.124343      6.000000
  0.252832 -0.029194  0.124343      6.000000

 SYSTEM =  Co-hcc
 POSCAR =  Co hcp

 Startparameter for this run:
   NWRITE =      2    write-flag & timer
   PREC   = accura    normal or accurate (medium, high low for compatibility)
   ISTART =      0    job   : 0-new  1-cont  2-samecut
   ICHARG =      2    charge: 1-file 2-atom 10-const
   ISPIN  =      2    spin polarized calculation?
   LNONCOLLINEAR =      F non collinear calculations
   LSORBIT =      F    spin-orbit coupling
   INIWAV =      1    electr: 0-lowe 1-rand  2-diag
   LASPH  =      F    aspherical Exc in radial PAW
 Electronic Relaxation 1
   ENCUT  =  425.0 eV  31.24 Ry    5.59 a.u.   4.16  4.16  6.76*2*pi/ulx,y,z
   ENINI  =  425.0     initial cutoff
   ENAUG  =  477.8 eV  augmentation charge cutoff
   NELM   =    100;   NELMIN=  2; NELMDL= -5     # of ELM steps
   EDIFF  = 0.1E-05   stopping-criterion for ELM
   LREAL  =      F    real-space projection
   NLSPLINE    = F    spline interpolate recip. space projectors
   LCOMPAT=      F    compatible to vasp.4.4
   GGA_COMPAT  = T    GGA compatible to vasp.4.4-vasp.4.6
   LMAXPAW     = -100 max onsite density
   LMAXMIX     =    2 max onsite mixed and CHGCAR
   VOSKOWN=      0    Vosko Wilk Nusair interpolation
   ROPT   =    0.00000
 Ionic relaxation
   EDIFFG = -.2E-01   stopping-criterion for IOM
   NSW    =      0    number of steps for IOM
   NBLOCK =      1;   KBLOCK =      1    inner block; outer block
   IBRION =     -1    ionic relax: 0-MD 1-quasi-New 2-CG
   NFREE  =      0    steps in history (QN), initial steepest desc. (CG)
   ISIF   =      2    stress and relaxation
   IWAVPR =     10    prediction:  0-non 1-charg 2-wave 3-comb
   ISYM   =      1    0-nonsym 1-usesym 2-fastsym
   LCORR  =      T    Harris-Foulkes like correction to forces

   POTIM  = 0.5000    time-step for ionic-motion
   TEIN   =    0.0    initial temperature
   TEBEG  =    0.0;   TEEND  =   0.0 temperature during run
   SMASS  =  -3.00    Nose mass-parameter (am)
   estimated Nose-frequenzy (Omega)   =  0.10E-29 period in steps = 0.13E+47 mass=  -0.140E-27a.u.
   SCALEE = 1.0000    scale energy and forces
   NPACO  =    256;   APACO  = 10.0  distance and # of slots for P.C.
   PSTRESS=    0.0 pullay stress

  Mass of Ions in am
   POMASS =  58.93
  Ionic Valenz
   ZVAL   =   9.00
  Atomic Wigner-Seitz radii
  virtual crystal weights
   VCA    =   1.00
[...]
     1.235999952  2.140814714  0.000000000     0.404530760  0.233555943  0.000000000
     0.000000000  0.000000000  4.021144080     0.000000000  0.000000000  0.248685444

[...]

 k-points in units of 2pi/SCALE and weight: Automatic mesh
   0.00000000  0.00000000  0.00000000       0.003
   0.05056635 -0.02919449  0.00000000       0.016
   0.10113269 -0.05838899  0.00000000       0.016
   0.15169904 -0.08758348  0.00000000       0.016
   0.20226538 -0.11677797  0.00000000       0.008
   0.10113269  0.00000000  0.00000000       0.016
   0.15169904 -0.02919449  0.00000000       0.031
   0.20226538 -0.05838899  0.00000000       0.031
   0.20226538  0.00000000  0.00000000       0.016
   0.25283173 -0.02919449  0.00000000       0.016
   0.00000000  0.00000000  0.04144757       0.005
   0.05056635 -0.02919449  0.04144757       0.031
   0.10113269 -0.05838899  0.04144757       0.031
   0.15169904 -0.08758348  0.04144757       0.031
   0.20226538 -0.11677797  0.04144757       0.016
   0.10113269  0.00000000  0.04144757       0.031
   0.15169904 -0.02919449  0.04144757       0.062
   0.20226538 -0.05838899  0.04144757       0.062
   0.20226538  0.00000000  0.04144757       0.031
   0.25283173 -0.02919449  0.04144757       0.031
   0.00000000  0.00000000  0.08289515       0.005
   0.05056635 -0.02919449  0.08289515       0.031
   0.10113269 -0.05838899  0.08289515       0.031
   0.15169904 -0.08758348  0.08289515       0.031
   0.20226538 -0.11677797  0.08289515       0.016
   0.10113269  0.00000000  0.08289515       0.031
   0.15169904 -0.02919449  0.08289515       0.062
   0.20226538 -0.05838899  0.08289515       0.062
   0.20226538  0.00000000  0.08289515       0.031
   0.25283173 -0.02919449  0.08289515       0.031
   0.00000000  0.00000000  0.12434272       0.003
   0.05056635 -0.02919449  0.12434272       0.016
   0.10113269 -0.05838899  0.12434272       0.016
   0.15169904 -0.08758348  0.12434272       0.016
   0.20226538 -0.11677797  0.12434272       0.008
   0.10113269  0.00000000  0.12434272       0.016
   0.15169904 -0.02919449  0.12434272       0.031
   0.20226538 -0.05838899  0.12434272       0.031
   0.20226538  0.00000000  0.12434272       0.016
   0.25283173 -0.02919449  0.12434272       0.016

 k-points in reciprocal lattice and weights: Automatic mesh
   0.00000000  0.00000000  0.00000000       0.003
   0.12500000  0.00000000  0.00000000       0.016
   0.25000000  0.00000000  0.00000000       0.016
   0.37500000  0.00000000  0.00000000       0.016
   0.50000000  0.00000000  0.00000000       0.008
   0.12500000  0.12500000  0.00000000       0.016
   0.25000000  0.12500000  0.00000000       0.031
   0.37500000  0.12500000  0.00000000       0.031
   0.25000000  0.25000000  0.00000000       0.016
   0.37500000  0.25000000  0.00000000       0.016
   0.00000000  0.00000000  0.16666667       0.005
   0.12500000  0.00000000  0.16666667       0.031
   0.25000000  0.00000000  0.16666667       0.031
   0.37500000  0.00000000  0.16666667       0.031
   0.50000000  0.00000000  0.16666667       0.016
   0.12500000  0.12500000  0.16666667       0.031
   0.25000000  0.12500000  0.16666667       0.062
   0.37500000  0.12500000  0.16666667       0.062
   0.25000000  0.25000000  0.16666667       0.031
   0.37500000  0.25000000  0.16666667       0.031
   0.00000000  0.00000000  0.33333333       0.005
   0.12500000  0.00000000  0.33333333       0.031
   0.25000000  0.00000000  0.33333333       0.031
   0.37500000  0.00000000  0.33333333       0.031
   0.50000000  0.00000000  0.33333333       0.016
   0.12500000  0.12500000  0.33333333       0.031
   0.25000000  0.12500000  0.33333333       0.062
   0.37500000  0.12500000  0.33333333       0.062
   0.25000000  0.25000000  0.33333333       0.031
   0.37500000  0.25000000  0.33333333       0.031
   0.00000000  0.00000000  0.50000000       0.003
   0.12500000  0.00000000  0.50000000       0.016
   0.25000000  0.00000000  0.50000000       0.016
   0.37500000  0.00000000  0.50000000       0.016
   0.50000000  0.00000000  0.50000000       0.008
   0.12500000  0.12500000  0.50000000       0.016
   0.25000000  0.12500000  0.50000000       0.031
   0.37500000  0.12500000  0.50000000       0.031
   0.25000000  0.25000000  0.50000000       0.016
   0.37500000  0.25000000  0.50000000       0.016

 position of ions in fractional coordinates (direct lattice)
   0.33333333  0.66666667  0.25000000
   0.66666667  0.33333333  0.75000000

 position of ions in cartesian coordinates  (Angst):
   1.23599995  0.71360490  1.00528602
   1.23599995 -0.71360490  3.01585806

 k-point   1 :   0.0000 0.0000 0.0000  plane waves:     391
 k-point   2 :   0.1250 0.0000 0.0000  plane waves:     411
 k-point   3 :   0.2500 0.0000 0.0000  plane waves:     427
 k-point   4 :   0.3750 0.0000 0.0000  plane waves:     429
 k-point   5 :   0.5000 0.0000 0.0000  plane waves:     428
 k-point   6 :   0.1250 0.1250 0.0000  plane waves:     418
 k-point   7 :   0.2500 0.1250 0.0000  plane waves:     420
 k-point   8 :   0.3750 0.1250 0.0000  plane waves:     424
 k-point   9 :   0.2500 0.2500 0.0000  plane waves:     430
 k-point  10 :   0.3750 0.2500 0.0000  plane waves:     426
 k-point  11 :   0.0000 0.0000 0.1667  plane waves:     397
 k-point  12 :   0.1250 0.0000 0.1667  plane waves:     412
 k-point  13 :   0.2500 0.0000 0.1667  plane waves:     423
 k-point  14 :   0.3750 0.0000 0.1667  plane waves:     429
 k-point  15 :   0.5000 0.0000 0.1667  plane waves:     432
 k-point  16 :   0.1250 0.1250 0.1667  plane waves:     422
 k-point  17 :   0.2500 0.1250 0.1667  plane waves:     424
 k-point  18 :   0.3750 0.1250 0.1667  plane waves:     428
 k-point  19 :   0.2500 0.2500 0.1667  plane waves:     422
 k-point  20 :   0.3750 0.2500 0.1667  plane waves:     425
 k-point  21 :   0.0000 0.0000 0.3333  plane waves:     410
 k-point  22 :   0.1250 0.0000 0.3333  plane waves:     428
 k-point  23 :   0.2500 0.0000 0.3333  plane waves:     425
 k-point  24 :   0.3750 0.0000 0.3333  plane waves:     427
 k-point  25 :   0.5000 0.0000 0.3333  plane waves:     428
 k-point  26 :   0.1250 0.1250 0.3333  plane waves:     426
 k-point  27 :   0.2500 0.1250 0.3333  plane waves:     420
 k-point  28 :   0.3750 0.1250 0.3333  plane waves:     421
 k-point  29 :   0.2500 0.2500 0.3333  plane waves:     418
 k-point  30 :   0.3750 0.2500 0.3333  plane waves:     430
 k-point  31 :   0.0000 0.0000 0.5000  plane waves:     422
 k-point  32 :   0.1250 0.0000 0.5000  plane waves:     428
 k-point  33 :   0.2500 0.0000 0.5000  plane waves:     420
 k-point  34 :   0.3750 0.0000 0.5000  plane waves:     424
 k-point  35 :   0.5000 0.0000 0.5000  plane waves:     432
 k-point  36 :   0.1250 0.1250 0.5000  plane waves:     420
 k-point  37 :   0.2500 0.1250 0.5000  plane waves:     424
 k-point  38 :   0.3750 0.1250 0.5000  plane waves:     422
 k-point  39 :   0.2500 0.2500 0.5000  plane waves:     428
 k-point  40 :   0.3750 0.2500 0.5000  plane waves:     428

 maximum and minimum number of plane-waves per node :        79       59

 maximum number of plane-waves:       432
 maximum index in each direction:
   IXMAX=    4   IYMAX=    4   IZMAX=    6
   IXMIN=   -4   IYMIN=   -4   IZMIN=   -7

 parallel 3D FFT for wavefunctions:
    minimum data exchange during FFTs selected (reduces bandwidth)
 parallel 3D FFT for charge:
    minimum data exchange during FFTs selected (reduces bandwidth)

 Broyden mixing: mesh for mixing (old mesh)
   NGX =  9   NGY =  9   NGZ = 13
  (NGX  = 36   NGY  = 36   NGZ  = 56)
  gives a total of   1053 points

 initial charge density was supplied:
 charge density of overlapping atoms calculated
 number of electron      18.0000000 magnetization       6.0000000
 keeping initial charge density in first step

 Maximum index for augmentation-charges         1066 (set IRDMAX)

 First call to EWALD:  gamma=   0.640
 Maximum number of real-space cells 3x 3x 2
 Maximum number of reciprocal cells 3x 3x 4

--------------------------------------- Iteration      1(   1)  ---------------------------------------

 eigenvalue-minimisations  :  2624
 total energy-change (2. order) : 0.7038322E+02  (-0.7440687E+03)
 number of electron      18.0000000 magnetization       6.0000000
 augmentation part       18.0000000 magnetization       6.0000000

 Free energy of the ion-electron system (eV)
  alpha Z        PSCENC =        79.61870385
  Ewald energy   TEWEN  =     -1531.60263765
  -Hartree energ DENC   =      -295.86427829
  -exchange      EXHF   =         0.00000000
  -V(xc)+E(xc)   XCENC  =        35.75670864
  PAW double counting   =      1439.98163886    -1545.88690193
  entropy T*S    EENTRO =        -0.00390022
  eigenvalues    EBANDS =       261.66065393
  atomic energy  EATOM  =      1626.72322989
  Solvation  Ediel_sol  =         0.00000000
  free energy    TOTEN  =        70.38321708 eV

  energy without entropy =       70.38711729  energy(sigma->0) =       70.38516719

[...]

 eigenvalue-minimisations  :  2584
 total energy-change (2. order) :-0.8407680E+02  (-0.7761096E+02)
 number of electron      18.0000000 magnetization       6.0000000
 augmentation part       18.0000000 magnetization       6.0000000

[...]

 eigenvalue-minimisations  :  3208
 total energy-change (2. order) :-0.1787866E-03  (-0.1787858E-03)
 number of electron      17.9999984 magnetization       3.3243819
 augmentation part        9.1678582 magnetization       2.5985841

 Broyden mixing:
  rms(total) = 0.16545E+01    rms(broyden)= 0.16545E+01
  rms(prec ) = 0.27162E+01
  weight for this iteration     100.00

[...]

 eigenvalues of (default mixing * dielectric matrix)
  average eigenvalue GAMMA=   0.8696
  0.8696

[...]

 Broyden mixing:
  rms(total) = 0.15275E-02    rms(broyden)= 0.15275E-02
  rms(prec ) = 0.22569E-02
  weight for this iteration     100.00

 eigenvalues of (default mixing * dielectric matrix)
  average eigenvalue GAMMA=   1.2375
  2.2982  2.2982  1.0344  1.0344  0.7093  0.6442  0.6442

[...]

--------------------------------------- Iteration      1(  13)  ---------------------------------------

 eigenvalue-minimisations  :  1960
 total energy-change (2. order) : 0.6443961E-06  (-0.9646494E-07)
 number of electron      17.9999982 magnetization       3.2501013
 augmentation part       10.2491887 magnetization       2.9363214

 Free energy of the ion-electron system (eV)
  alpha Z        PSCENC =        79.61870385
  Ewald energy   TEWEN  =     -1531.60263765
  -Hartree energ DENC   =      -260.56086806
  -exchange      EXHF   =         0.00000000
  -V(xc)+E(xc)   XCENC  =        32.97738503
  PAW double counting   =      1828.65865717    -1934.84294152
  entropy T*S    EENTRO =        -0.00130274
  eigenvalues    EBANDS =       144.94426467
  atomic energy  EATOM  =      1626.72322989
  Solvation  Ediel_sol  =         0.00000000
  free energy    TOTEN  =       -14.08550936 eV

  energy without entropy =      -14.08420662  energy(sigma->0) =      -14.08485799

 average (electrostatic) potential at core
  the test charge radii are     1.0452
  (the norm of the test charge is              1.0000)
       1 -78.0320       2 -78.0320

 E-fermi :  10.5172     XC(G=0): -13.5200     alpha+bet :-18.0772

 Fermi energy:        10.5172205235

 spin component 1

 k-point     1 :       0.0000    0.0000    0.0000
  band No.  band energies     occupation
      1       1.5129      1.00000
      2       5.2912      1.00000
      3       7.8394      1.00000
      4       7.8990      1.00000
      5       7.8990      1.00000
      6       8.2136      1.00000
      7       8.2136      1.00000
      8       8.6055      1.00000
      9       8.6055      1.00000
     10       9.7140      1.00000
     11       9.7140      1.00000
     12      10.3884      0.99987
     13      16.9609      0.00000
     14      32.7618      0.00000
     15      35.5626      0.00000
     16      35.5629      0.00000

[...]

 k-point    40 :       0.3750    0.2500    0.5000
  band No.  band energies     occupation
      1       6.2751      1.00000
      2       6.2751      1.00000
      3       6.9933      1.00000
      4       6.9933      1.00000
      5       7.6017      1.00000
      6       7.6017      1.00000
      7       8.6979      1.00000
      8       8.6979      1.00000
      9       9.7874      1.00000
     10       9.7874      1.00000
     11      15.2866      0.00000
     12      15.2866      0.00000
     13      18.3225      0.00000
     14      18.3225      0.00000
     15      21.4463      0.00000
     16      21.4463      0.00000
 Fermi energy:        10.5172205235

 spin component 2

[...]

 k-point    40 :       0.3750    0.2500    0.5000
  band No.  band energies     occupation
      1       7.4228      1.00000
      2       7.4228      1.00000
      3       8.3551      1.00000
      4       8.3551      1.00000
      5       8.8003      1.00000
      6       8.8003      1.00000
      7      10.4041      0.99931
      8      10.4041      0.99931
      9      11.6739      0.00000
     10      11.6739      0.00000
     11      15.9861      0.00000
     12      15.9861      0.00000
     13      19.1001      0.00000
     14      19.1001      0.00000
     15      22.0084      0.00000
     16      22.0084      0.00000

 soft charge-density along one line, spin component           1
         0         1         2         3         4         5         6         7         8         9
 total charge-density along one line

 soft charge-density along one line, spin component           2
         0         1         2         3         4         5         6         7         8         9
 total charge-density along one line

------------------------ aborting loop because EDIFF is reached ----------------------------------------

 total charge

# of ion       s       p       d       tot
    1        0.498   0.540   7.271   8.310
    2        0.498   0.540   7.271   8.310
tot          0.995   1.081  14.543  16.619

 magnetization (x)

[...]

  FORCE on cell =-STRESS in cart. coord.  units (eV):
  Direction    XX          YY          ZZ          XY          YZ          ZX
  Alpha Z    79.61870    79.61870    79.61870
  Ewald    -511.71047  -511.71047  -508.18277     0.00000     0.00000    -0.00000
  Hartree    86.29174    86.29174    87.97959     0.00000    -0.00000    -0.00000
  E(xc)     -92.68804   -92.68803   -92.68361     0.00000     0.00000    -0.00000
  Local     -15.42760   -15.42750   -20.30558    -0.00000     0.00000     0.00000
  n-local   -14.34304    -3.42128    -9.14856     3.44015    -0.64037     2.29243
  augment   310.86288   310.86281   310.68474    -0.00000    -0.00000     0.00000
  Kinetic   155.52213   149.68192   152.23964    -3.22117    -0.54536     0.55642
  Fock        0.00000     0.00000     0.00000     0.00000     0.00000     0.00000
  Total       0.66710     0.66710     0.20215     0.00000    -0.00000     0.00000
  in kB      50.22526    50.22526    15.21977     0.00000    -0.00000     0.00000

 VOLUME and BASIS-vectors are now :
  energy-cutoff  :      425.00
  volume of cell :       21.28
      direct lattice vectors                 reciprocal lattice vectors
     1.235999952 -2.140814714  0.000000000     0.404530760 -0.233555943  0.000000000
     1.235999952  2.140814714  0.000000000     0.404530760  0.233555943  0.000000000
     0.000000000  0.000000000  4.021144080     0.000000000  0.000000000  0.248685444

  length of vectors
     2.471999903  2.471999903  4.021144080     0.467111887  0.467111887  0.248685444

 FORCES acting on ions
    electron-ion (+dipol)            ewald-force                    non-local-force                 convergence-correction
   -.172E-12 -.998E-07 -.848E-12   -.138E-13 0.239E-11 -.240E-13   0.173E-17 0.173E-16 0.203E-19   -.122E-13 -.154E-08 -.730E-13
   0.108E-11 0.999E-07 -.521E-11   0.114E-13 -.239E-11 0.240E-13   -.694E-17 -.173E-16 -.474E-19   0.559E-14 0.154E-08 0.628E-13
   0.909E-12 0.345E-10 -.606E-11   -.234E-14 0.772E-15 0.000E+00   -.520E-17 0.000E+00 -.271E-19   -.658E-14 -.228E-13 -.102E-13

 POSITION                                       TOTAL-FORCE (eV/Angst)
      1.23600      0.71360      1.00529         0.000000     -0.000000     -0.000000
      1.23600     -0.71360      3.01586        -0.000000      0.000000      0.000000
    total drift:                                0.000000      0.000000     -0.000000

  FREE ENERGIE OF THE ION-ELECTRON SYSTEM (eV)
  free  energy   TOTEN  =       -14.08550936 eV

  energy  without entropy=      -14.08420662  energy(sigma->0) =      -14.08485799

 total charge

[...]

 magnetization (x)

# of ion       s       p       d       tot
    1       -0.015  -0.057   1.714   1.642
    2       -0.015  -0.057   1.714   1.642
tot         -0.031  -0.113   3.427   3.283