 vasp.6.3.2 27Jun22 (build Aug 12 2022 00:53:59) complex

 executed on               tv2STD date 2024.11.30  15:35:42

 INCAR:
   SYSTEM = Co-hcc
   NWRITE = 2    write-flag
   ISTART = 0    job   : 0-new, 1-cont, 2-samecut
   ICHARG = 2    charge: 0-wave, 1-file, 2-atom, >10-const
   INIWAV = 1    electr: 0-lowe 1-rand  2-diag
   ENCUT = 400     energy cutoff in eV
   PREC = Accurate      normal | accurate
   ADDGRID = .FALSE.  (use fine grid)
   NELM = 100     number of ELM steps
   EDIFF = 1E-06    energy stopping-criterion for ELM
   LREAL = .F.      real-space projection (.FALSE., .TRUE., On, Auto)
   ALGO = Normal     Normal, Fast, Very_Fast
   LWAVE = .FALSE.
   LCHARG = .FALSE.
   NSW = 0       max number of geometry steps
   IBRION = -1     ionic relax: 0-MD, 1-quasi-Newton, 2-CG, 3-Damped MD
   EDIFFG = -0.02  force (eV/A) stopping-criterion for geometry steps
   ISIF = 2     (1:force\=y stress\=trace only ions\=y shape\=n volume\=n)
   ISYM = 1     (1-use symmetry, 0-no symmetry)
   ISMEAR = 0     (-1-Fermi, 1-Methfessel/Paxton)
   SIGMA = 0.05   broadening in eV
   NPAR = 4
   ISPIN = 2
   MAGMOM = 2*3

 POTCAR:    PAW_PBE Co 02Aug2007
 POTCAR:    PAW_PBE Co 02Aug2007
   VRHFIN =Co: d8 s1

   TITEL  = PAW_PBE Co 02Aug2007
   POMASS =   58.933; ZVAL   =    9.000    mass and valenz
   ENMAX  =  267.968; ENMIN  =  200.976 eV

  PAW_PBE Co 02Aug2007                  :

 POSCAR: Co
  positions in cartesian coordinates
 exchange correlation table for  LEXCH =        8
   RHO(1)=    0.500       N(1)  =     2000
   RHO(2)=  100.500       N(2)  =     4000

 ion  position               nearest neighbor table
   1  0.000  0.000  0.000-
   2  0.333  0.667  0.500-

  LATTYP: Found a hexagonal cell.
 ALAT       =     2.4700000000
 C/A-ratio  =     3.2753036437

  Lattice vectors:

 A1 = (   2.4700000000,   0.0000000000,   0.0000000000)
 A2 = (  -1.2350000000,   2.1390827473,   0.0000000000)
 A3 = (   0.0000000000,   0.0000000000,   8.0900000000)

Analysis of symmetry for initial positions (statically):
 Subroutine PRICEL returns:
 Original cell was already a primitive cell.

 Routine SETGRP: Setting up the symmetry group for a
 hexagonal supercell.

 Subroutine GETGRP returns: Found 24 space group operations
 (whereof 12 operations were pure point group operations)
 out of a pool of 24 trial point group operations.

The static configuration has the point symmetry D_3h.
 The point group associated with its full space group is D_6h.

Analysis of symmetry for dynamics (positions and initial velocities):
 Subroutine PRICEL returns:
 Original cell was already a primitive cell.

[...]

The dynamic configuration has the point symmetry D_3h.
 The point group associated with its full space group is D_6h.

Analysis of structural, dynamic, and magnetic symmetry:
 Subroutine PRICEL returns:
 Original cell was already a primitive cell.

 Routine SETGRP: Setting up the symmetry group for a
 hexagonal supercell.

 Subroutine GETGRP returns: Found 24 space group operations
 (whereof 12 operations were pure point group operations)
 out of a pool of 24 trial point group operations.

The overall configuration has the point symmetry D_3h.
 The point group associated with its full space group is D_6h.

 Subroutine INISYM returns: Found 24 space group operations
 (whereof 12 operations are pure point group operations),
 and found     1 'primitive' translations

                                     Primitive cell

  volume of cell :      42.7438

  direct lattice vectors                    reciprocal lattice vectors
     2.470000000  0.000000000  0.000000000     0.404858300  0.233745048  0.000000000
    -1.235000000  2.139082747  0.000000000     0.000000000  0.467490097  0.000000000
     0.000000000  0.000000000  8.090000000     0.000000000  0.000000000  0.123609394

  length of vectors
     2.470000000  2.470000000  8.090000000     0.467490097  0.467490097  0.123609394

  position of ions in fractional coordinates (direct lattice)
     0.000000000  0.000000000  0.000000000
     0.333333333  0.666666667  0.500000000

  ion indices of the primitive-cell ions
   primitive index   ion index
                 1           1
                 2           2

 KPOINTS: Automatic mesh

Automatic generation of k-mesh.
 Grid dimensions read from file:
 generate k-points for:    8    8    6

 Generating k-lattice:

  Cartesian coordinates                     Fractional coordinates (reciprocal lattice)
     0.050607287  0.029218131  0.000000000     0.125000000  0.000000000  0.000000000
     0.000000000  0.058436262  0.000000000     0.000000000  0.125000000  0.000000000
     0.000000000  0.000000000  0.020601566     0.000000000  0.000000000  0.166666667

  Length of vectors
     0.058436262  0.058436262  0.020601566

  Shift w.r.t. Gamma in fractional coordinates (k-lattice)
     0.000000000  0.000000000  0.000000000

 Subroutine IBZKPT returns following result:

 Found     40 irreducible k-points:

 Following reciprocal coordinates:
            Coordinates               Weight
  0.000000  0.000000  0.000000      1.000000
  0.125000 -0.000000  0.000000      6.000000
  0.250000 -0.000000  0.000000      6.000000
  0.375000 -0.000000  0.000000      6.000000
  0.500000 -0.000000  0.000000      3.000000
  0.125000  0.125000  0.000000      6.000000
  0.250000  0.125000  0.000000     12.000000
  0.375000  0.125000  0.000000     12.000000
  0.250000  0.250000  0.000000      6.000000
  0.375000  0.250000  0.000000      6.000000
  0.000000  0.000000  0.166667      2.000000
  0.125000 -0.000000  0.166667     12.000000
  0.250000 -0.000000  0.166667     12.000000
  0.375000 -0.000000  0.166667     12.000000
  0.500000 -0.000000  0.166667      6.000000
  0.125000  0.125000  0.166667     12.000000
  0.250000  0.125000  0.166667     24.000000
  0.375000  0.125000  0.166667     24.000000
  0.250000  0.250000  0.166667     12.000000
  0.375000  0.250000  0.166667     12.000000
  0.000000  0.000000  0.333333      2.000000
  0.125000 -0.000000  0.333333     12.000000
  0.250000 -0.000000  0.333333     12.000000
  0.375000 -0.000000  0.333333     12.000000
  0.500000 -0.000000  0.333333      6.000000
  0.125000  0.125000  0.333333     12.000000
  0.250000  0.125000  0.333333     24.000000
  0.375000  0.125000  0.333333     24.000000
  0.250000  0.250000  0.333333     12.000000
  0.375000  0.250000  0.333333     12.000000
  0.000000  0.000000  0.500000      1.000000
  0.125000 -0.000000  0.500000      6.000000
  0.250000 -0.000000  0.500000      6.000000
  0.375000 -0.000000  0.500000      6.000000
  0.500000 -0.000000  0.500000      3.000000
  0.125000  0.125000  0.500000      6.000000
  0.250000  0.125000  0.500000     12.000000
  0.375000  0.125000  0.500000     12.000000
  0.250000  0.250000  0.500000      6.000000
  0.375000  0.250000  0.500000      6.000000

 Following cartesian coordinates:
            Coordinates               Weight
  0.000000  0.000000  0.000000      1.000000
  0.050607  0.029218  0.000000      6.000000
  0.101215  0.058436  0.000000      6.000000
  0.151822  0.087654  0.000000      6.000000
  0.202429  0.116873  0.000000      3.000000
  0.050607  0.087654  0.000000      6.000000
  0.101215  0.116873  0.000000     12.000000
  0.151822  0.146091  0.000000     12.000000
  0.101215  0.175309  0.000000      6.000000
  0.151822  0.204527  0.000000      6.000000
  0.000000  0.000000  0.020602      2.000000
  0.050607  0.029218  0.020602     12.000000
  0.101215  0.058436  0.020602     12.000000
  0.151822  0.087654  0.020602     12.000000
  0.202429  0.116873  0.020602      6.000000
  0.050607  0.087654  0.020602     12.000000
  0.101215  0.116873  0.020602     24.000000
  0.151822  0.146091  0.020602     24.000000
  0.101215  0.175309  0.020602     12.000000
  0.151822  0.204527  0.020602     12.000000
  0.000000  0.000000  0.041203      2.000000
  0.050607  0.029218  0.041203     12.000000
  0.101215  0.058436  0.041203     12.000000
  0.151822  0.087654  0.041203     12.000000
  0.202429  0.116873  0.041203      6.000000
  0.050607  0.087654  0.041203     12.000000
  0.101215  0.116873  0.041203     24.000000
  0.151822  0.146091  0.041203     24.000000
  0.101215  0.175309  0.041203     12.000000
  0.151822  0.204527  0.041203     12.000000
  0.000000  0.000000  0.061805      1.000000
  0.050607  0.029218  0.061805      6.000000
  0.101215  0.058436  0.061805      6.000000
  0.151822  0.087654  0.061805      6.000000
  0.202429  0.116873  0.061805      3.000000
  0.050607  0.087654  0.061805      6.000000
  0.101215  0.116873  0.061805     12.000000
  0.151822  0.146091  0.061805     12.000000
  0.101215  0.175309  0.061805      6.000000
  0.151822  0.204527  0.061805      6.000000

 SYSTEM =  Co-hcc
 POSCAR =  Co

 Startparameter for this run:
   NWRITE =      2    write-flag & timer
   PREC   = accura    normal or accurate (medium, high low for compatibility)
   ISTART =      0    job   : 0-new  1-cont  2-samecut
   ICHARG =      2    charge: 1-file 2-atom 10-const
   ISPIN  =      2    spin polarized calculation?
   LNONCOLLINEAR =      F non collinear calculations
   LSORBIT =      F    spin-orbit coupling
   INIWAV =      1    electr: 0-lowe 1-rand  2-diag
   LASPH  =      F    aspherical Exc in radial PAW
 Electronic Relaxation 1
   ENCUT  =  400.0 eV  29.40 Ry    5.42 a.u.   4.03  4.03 13.19*2*pi/ulx,y,z
   ENINI  =  400.0     initial cutoff
   ENAUG  =  477.8 eV  augmentation charge cutoff
   NELM   =    100;   NELMIN=  2; NELMDL= -5     # of ELM steps
   EDIFF  = 0.1E-05   stopping-criterion for ELM
   LREAL  =      F    real-space projection
   NLSPLINE    = F    spline interpolate recip. space projectors
   LCOMPAT=      F    compatible to vasp.4.4
   GGA_COMPAT  = T    GGA compatible to vasp.4.4-vasp.4.6
   LMAXPAW     = -100 max onsite density
   LMAXMIX     =    2 max onsite mixed and CHGCAR
   VOSKOWN=      0    Vosko Wilk Nusair interpolation
   ROPT   =    0.00000
 Ionic relaxation
   EDIFFG = -.2E-01   stopping-criterion for IOM
   NSW    =      0    number of steps for IOM
   NBLOCK =      1;   KBLOCK =      1    inner block; outer block
   IBRION =     -1    ionic relax: 0-MD 1-quasi-New 2-CG
   NFREE  =      0    steps in history (QN), initial steepest desc. (CG)
   ISIF   =      2    stress and relaxation
   IWAVPR =     10    prediction:  0-non 1-charg 2-wave 3-comb
   ISYM   =      1    0-nonsym 1-usesym 2-fastsym
   LCORR  =      T    Harris-Foulkes like correction to forces

   POTIM  = 0.5000    time-step for ionic-motion
   TEIN   =    0.0    initial temperature
   TEBEG  =    0.0;   TEEND  =   0.0 temperature during run
   SMASS  =  -3.00    Nose mass-parameter (am)
   estimated Nose-frequenzy (Omega)   =  0.10E-29 period in steps = 0.13E+47 mass=  -0.139E-27a.u.
   SCALEE = 1.0000    scale energy and forces
   NPACO  =    256;   APACO  = 10.0  distance and # of slots for P.C.
   PSTRESS=    0.0 pullay stress

  Mass of Ions in am
   POMASS =  58.93
  Ionic Valenz
   ZVAL   =   9.00
  Atomic Wigner-Seitz radii
  virtual crystal weights
   VCA    =   1.00
   NELECT =      18.0000    total number of electrons
   NUPDOWN=      -1.0000    fix difference up-down

 DOS related values:
[...]
 use partial core corrections
 calculate Harris-corrections to forces
   (improved forces if not selfconsistent)
 use gradient corrections
 use of overlap-Matrix (Vanderbilt PP)
 Gauss-broadening in eV      SIGMA  =   0.05

  energy-cutoff  :      400.00
  volume of cell :       42.74
      direct lattice vectors                 reciprocal lattice vectors
     2.470000000  0.000000000  0.000000000     0.404858300  0.233745048  0.000000000
    -1.235000000  2.139082747  0.000000000     0.000000000  0.467490097  0.000000000
     0.000000000  0.000000000  8.090000000     0.000000000  0.000000000  0.123609394

[...]

 k-points in units of 2pi/SCALE and weight: Automatic mesh
   0.00000000  0.00000000  0.00000000       0.003
   0.05060729  0.02921813  0.00000000       0.016
   0.10121457  0.05843626  0.00000000       0.016
   0.15182186  0.08765439  0.00000000       0.016
   0.20242915  0.11687252  0.00000000       0.008
   0.05060729  0.08765439  0.00000000       0.016
   0.10121457  0.11687252  0.00000000       0.031
   0.15182186  0.14609066  0.00000000       0.031
   0.10121457  0.17530879  0.00000000       0.016
   0.15182186  0.20452692  0.00000000       0.016
   0.00000000  0.00000000  0.02060157       0.005
   0.05060729  0.02921813  0.02060157       0.031
   0.10121457  0.05843626  0.02060157       0.031
   0.15182186  0.08765439  0.02060157       0.031
   0.20242915  0.11687252  0.02060157       0.016
   0.05060729  0.08765439  0.02060157       0.031
   0.10121457  0.11687252  0.02060157       0.062
   0.15182186  0.14609066  0.02060157       0.062
   0.10121457  0.17530879  0.02060157       0.031
   0.15182186  0.20452692  0.02060157       0.031
   0.00000000  0.00000000  0.04120313       0.005
   0.05060729  0.02921813  0.04120313       0.031
   0.10121457  0.05843626  0.04120313       0.031
   0.15182186  0.08765439  0.04120313       0.031
   0.20242915  0.11687252  0.04120313       0.016
   0.05060729  0.08765439  0.04120313       0.031
   0.10121457  0.11687252  0.04120313       0.062
   0.15182186  0.14609066  0.04120313       0.062
   0.10121457  0.17530879  0.04120313       0.031
   0.15182186  0.20452692  0.04120313       0.031
   0.00000000  0.00000000  0.06180470       0.003
   0.05060729  0.02921813  0.06180470       0.016
   0.10121457  0.05843626  0.06180470       0.016
   0.15182186  0.08765439  0.06180470       0.016
   0.20242915  0.11687252  0.06180470       0.008
   0.05060729  0.08765439  0.06180470       0.016
   0.10121457  0.11687252  0.06180470       0.031
   0.15182186  0.14609066  0.06180470       0.031
   0.10121457  0.17530879  0.06180470       0.016
   0.15182186  0.20452692  0.06180470       0.016

 k-points in reciprocal lattice and weights: Automatic mesh
   0.00000000  0.00000000  0.00000000       0.003
   0.12500000 -0.00000000  0.00000000       0.016
   0.25000000 -0.00000000  0.00000000       0.016
   0.37500000 -0.00000000  0.00000000       0.016
   0.50000000 -0.00000000  0.00000000       0.008
   0.12500000  0.12500000  0.00000000       0.016
   0.25000000  0.12500000  0.00000000       0.031
   0.37500000  0.12500000  0.00000000       0.031
   0.25000000  0.25000000  0.00000000       0.016
   0.37500000  0.25000000  0.00000000       0.016
   0.00000000  0.00000000  0.16666667       0.005
   0.12500000 -0.00000000  0.16666667       0.031
   0.25000000 -0.00000000  0.16666667       0.031
   0.37500000 -0.00000000  0.16666667       0.031
   0.50000000 -0.00000000  0.16666667       0.016
   0.12500000  0.12500000  0.16666667       0.031
   0.25000000  0.12500000  0.16666667       0.062
   0.37500000  0.12500000  0.16666667       0.062
   0.25000000  0.25000000  0.16666667       0.031
   0.37500000  0.25000000  0.16666667       0.031
   0.00000000  0.00000000  0.33333333       0.005
   0.12500000 -0.00000000  0.33333333       0.031
   0.25000000 -0.00000000  0.33333333       0.031
   0.37500000 -0.00000000  0.33333333       0.031
   0.50000000 -0.00000000  0.33333333       0.016
   0.12500000  0.12500000  0.33333333       0.031
   0.25000000  0.12500000  0.33333333       0.062
   0.37500000  0.12500000  0.33333333       0.062
   0.25000000  0.25000000  0.33333333       0.031
   0.37500000  0.25000000  0.33333333       0.031
   0.00000000  0.00000000  0.50000000       0.003
   0.12500000 -0.00000000  0.50000000       0.016
   0.25000000 -0.00000000  0.50000000       0.016
   0.37500000 -0.00000000  0.50000000       0.016
   0.50000000 -0.00000000  0.50000000       0.008
   0.12500000  0.12500000  0.50000000       0.016
   0.25000000  0.12500000  0.50000000       0.031
   0.37500000  0.12500000  0.50000000       0.031
   0.25000000  0.25000000  0.50000000       0.016
   0.37500000  0.25000000  0.50000000       0.016

 position of ions in fractional coordinates (direct lattice)
   0.00000000  0.00000000  0.00000000
   0.33333333  0.66666667  0.50000000

 position of ions in cartesian coordinates  (Angst):
   0.00000000  0.00000000  0.00000000
   0.00000000  1.42605516  4.04500000

 k-point   1 :   0.0000 0.0000 0.0000  plane waves:     741
 k-point   2 :   0.1250-0.0000 0.0000  plane waves:     755
 k-point   3 :   0.2500-0.0000 0.0000  plane waves:     773
 k-point   4 :   0.3750-0.0000 0.0000  plane waves:     777
 k-point   5 :   0.5000-0.0000 0.0000  plane waves:     766
 k-point   6 :   0.1250 0.1250 0.0000  plane waves:     764
 k-point   7 :   0.2500 0.1250 0.0000  plane waves:     781
 k-point   8 :   0.3750 0.1250 0.0000  plane waves:     791
 k-point   9 :   0.2500 0.2500 0.0000  plane waves:     786
 k-point  10 :   0.3750 0.2500 0.0000  plane waves:     776
 k-point  11 :   0.0000 0.0000 0.1667  plane waves:     741
 k-point  12 :   0.1250-0.0000 0.1667  plane waves:     751
 k-point  13 :   0.2500-0.0000 0.1667  plane waves:     773
 k-point  14 :   0.3750-0.0000 0.1667  plane waves:     774
 k-point  15 :   0.5000-0.0000 0.1667  plane waves:     778
 k-point  16 :   0.1250 0.1250 0.1667  plane waves:     772
 k-point  17 :   0.2500 0.1250 0.1667  plane waves:     782
 k-point  18 :   0.3750 0.1250 0.1667  plane waves:     787
 k-point  19 :   0.2500 0.2500 0.1667  plane waves:     783
 k-point  20 :   0.3750 0.2500 0.1667  plane waves:     781
 k-point  21 :   0.0000 0.0000 0.3333  plane waves:     752
 k-point  22 :   0.1250-0.0000 0.3333  plane waves:     753
 k-point  23 :   0.2500-0.0000 0.3333  plane waves:     777
 k-point  24 :   0.3750-0.0000 0.3333  plane waves:     780
 k-point  25 :   0.5000-0.0000 0.3333  plane waves:     768
 k-point  26 :   0.1250 0.1250 0.3333  plane waves:     772
 k-point  27 :   0.2500 0.1250 0.3333  plane waves:     782
 k-point  28 :   0.3750 0.1250 0.3333  plane waves:     779
 k-point  29 :   0.2500 0.2500 0.3333  plane waves:     778
 k-point  30 :   0.3750 0.2500 0.3333  plane waves:     784
 k-point  31 :   0.0000 0.0000 0.5000  plane waves:     770
 k-point  32 :   0.1250-0.0000 0.5000  plane waves:     752
 k-point  33 :   0.2500-0.0000 0.5000  plane waves:     764
 k-point  34 :   0.3750-0.0000 0.5000  plane waves:     784
 k-point  35 :   0.5000-0.0000 0.5000  plane waves:     768
 k-point  36 :   0.1250 0.1250 0.5000  plane waves:     774
 k-point  37 :   0.2500 0.1250 0.5000  plane waves:     786
 k-point  38 :   0.3750 0.1250 0.5000  plane waves:     786
 k-point  39 :   0.2500 0.2500 0.5000  plane waves:     792
 k-point  40 :   0.3750 0.2500 0.5000  plane waves:     780

 maximum and minimum number of plane-waves per node :       139      109

 maximum number of plane-waves:       792
 maximum index in each direction:
   IXMAX=    4   IYMAX=    4   IZMAX=   13
   IXMIN=   -4   IYMIN=   -4   IZMIN=  -13

 parallel 3D FFT for wavefunctions:
    minimum data exchange during FFTs selected (reduces bandwidth)
 parallel 3D FFT for charge:
    minimum data exchange during FFTs selected (reduces bandwidth)

 Broyden mixing: mesh for mixing (old mesh)
   NGX =  9   NGY =  9   NGZ = 27
  (NGX  = 32   NGY  = 32   NGZ  =108)
  gives a total of   2187 points

 initial charge density was supplied:
 charge density of overlapping atoms calculated
 number of electron      18.0000000 magnetization       6.0000000
 keeping initial charge density in first step

 Maximum index for augmentation-charges         1022 (set IRDMAX)

 First call to EWALD:  gamma=   0.507
 Maximum number of real-space cells 4x 4x 1
 Maximum number of reciprocal cells 2x 2x 6

--------------------------------------- Iteration      1(   1)  ---------------------------------------

 eigenvalue-minimisations  :  2584
 total energy-change (2. order) : 0.7560770E+02  (-0.6582733E+03)
 number of electron      18.0000000 magnetization       6.0000000
 augmentation part       18.0000000 magnetization       6.0000000

 Free energy of the ion-electron system (eV)
  alpha Z        PSCENC =        39.63868225
  Ewald energy   TEWEN  =     -1054.56880693
  -Hartree energ DENC   =      -595.60964206
  -exchange      EXHF   =         0.00000000
  -V(xc)+E(xc)   XCENC  =        33.36921587
  PAW double counting   =      1439.98163886    -1545.88690193
  entropy T*S    EENTRO =        -0.00425507
  eigenvalues    EBANDS =       131.97229732
  atomic energy  EATOM  =      1626.71546820
  Solvation  Ediel_sol  =         0.00000000
  free energy    TOTEN  =        75.60769652 eV

  energy without entropy =       75.61195159  energy(sigma->0) =       75.60982405

[...]

 eigenvalue-minimisations  :  2560
 total energy-change (2. order) :-0.8626782E+02  (-0.7959457E+02)
 number of electron      18.0000000 magnetization       6.0000000
 augmentation part       18.0000000 magnetization       6.0000000

[...]

 Broyden mixing:
  rms(total) = 0.12631E+01    rms(broyden)= 0.12631E+01
  rms(prec ) = 0.17083E+01
  weight for this iteration     100.00

[...]

 eigenvalues of (default mixing * dielectric matrix)
  average eigenvalue GAMMA=   0.4103
  0.4103

[...]

 eigenvalue-minimisations  :  3008
 total energy-change (2. order) : 0.3692447E-04  (-0.2005365E-04)
 number of electron      17.9999991 magnetization       4.1732544
 augmentation part       10.3049654 magnetization       3.3923768

[...]

 Broyden mixing:
  rms(total) = 0.53539E-03    rms(broyden)= 0.53482E-03
  rms(prec ) = 0.62004E-03
  weight for this iteration     100.00

 eigenvalues of (default mixing * dielectric matrix)
  average eigenvalue GAMMA=   1.1642
  2.6506  2.4229  1.1125  1.1125  1.1088  1.1088  0.7536  0.7536  0.5234  0.6298
  0.6298

[...]

--------------------------------------- Iteration      1(  17)  ---------------------------------------

 eigenvalue-minimisations  :  2136
 total energy-change (2. order) :-0.1554822E-06  (-0.8906721E-07)
 number of electron      17.9999991 magnetization       4.1721728
 augmentation part       10.3050258 magnetization       3.3892294

 Free energy of the ion-electron system (eV)
  alpha Z        PSCENC =        39.63868225
  Ewald energy   TEWEN  =     -1054.56880693
  -Hartree energ DENC   =      -567.22492522
  -exchange      EXHF   =         0.00000000
  -V(xc)+E(xc)   XCENC  =        31.43194529
  PAW double counting   =      1616.94021763    -1722.80604280
  entropy T*S    EENTRO =        -0.00841584
  eigenvalues    EBANDS =        18.71688297
  atomic energy  EATOM  =      1626.71546820
  Solvation  Ediel_sol  =         0.00000000
  free energy    TOTEN  =       -11.16499445 eV

  energy without entropy =      -11.15657861  energy(sigma->0) =      -11.16078653

 average (electrostatic) potential at core
  the test charge radii are     1.0452
  (the norm of the test charge is              1.0000)
       1 -85.4944       2 -85.4944

 E-fermi :   3.1733     XC(G=0):  -9.3919     alpha+bet : -8.9999

 Fermi energy:         3.1733254575

 spin component 1

 k-point     1 :       0.0000    0.0000    0.0000
  band No.  band energies     occupation
      1      -3.1142      1.00000
      2      -2.6572      1.00000
      3      -0.1061      1.00000
      4       0.6353      1.00000
      5       0.6353      1.00000
      6       0.6362      1.00000
      7       0.6362      1.00000
      8       0.9118      1.00000
      9       1.5989      1.00000
     10       1.5989      1.00000
     11       1.6018      1.00000
     12       1.6018      1.00000
     13       2.1906      1.00000
     14       6.4314      0.00000
     15      10.8871      0.00000
     16      18.7964      0.00000

[...]

 k-point    40 :       0.3750    0.2500    0.5000
  band No.  band energies     occupation
      1      -0.1308      1.00000
      2      -0.1308      1.00000
      3       0.1059      1.00000
      4       0.1059      1.00000
      5       0.6504      1.00000
      6       0.6504      1.00000
      7       0.8490      1.00000
      8       0.8490      1.00000
      9       1.2002      1.00000
     10       1.2002      1.00000
     11       8.2972      0.00000
     12       8.2972      0.00000
     13      10.1459      0.00000
     14      10.1459      0.00000
     15      13.4473      0.00000
     16      13.4473      0.00000
 Fermi energy:         3.1733254575

 spin component 2

[...]

 k-point    40 :       0.3750    0.2500    0.5000
  band No.  band energies     occupation
      1       1.4239      1.00000
      2       1.4239      1.00000
      3       2.0554      1.00000
      4       2.0554      1.00000
      5       2.4144      1.00000
      6       2.4144      1.00000
      7       2.7402      1.00000
      8       2.7402      1.00000
      9       3.4060      0.00000
     10       3.4060      0.00000
     11       8.9762      0.00000
     12       8.9762      0.00000
     13      10.8714      0.00000
     14      10.8714      0.00000
     15      13.9789      0.00000
     16      13.9789      0.00000

 soft charge-density along one line, spin component           1
         0         1         2         3         4         5         6         7         8         9
 total charge-density along one line

 soft charge-density along one line, spin component           2
         0         1         2         3         4         5         6         7         8         9
 total charge-density along one line

------------------------ aborting loop because EDIFF is reached ----------------------------------------

  FORCE on cell =-STRESS in cart. coord.  units (eV):
  Direction    XX          YY          ZZ          XY          YZ          ZX
  Alpha Z    39.63868    39.63868    39.63868
  Ewald     -59.61202   -59.61202  -935.34508    -0.00000     0.00000     0.00000
  Hartree   382.82015   382.82015  -198.40938    -0.00000    -0.00000    -0.00000
  E(xc)     -90.99216   -90.99215   -91.34887     0.00000    -0.00000    -0.00000
  Local    -721.39078  -721.39089   736.46430    -0.00010    -0.00000    -0.00000
  n-local   -11.63568    -9.54791   -14.76085    -9.65680    -0.07634    -0.09465
  augment   312.55598   312.55609   311.66193     0.00010    -0.00000    -0.00000
  Kinetic   146.93280   142.32143   150.71386     8.88796    -0.04084     0.00566
  Fock        0.00000     0.00000     0.00000     0.00000     0.00000     0.00000
  Total      -2.94481    -2.94481    -1.38541    -0.00000     0.00000     0.00000
  in kB    -110.38117  -110.38117   -51.92963    -0.00000     0.00000     0.00000

 VOLUME and BASIS-vectors are now :
  energy-cutoff  :      400.00
  volume of cell :       42.74
      direct lattice vectors                 reciprocal lattice vectors
     2.470000000  0.000000000  0.000000000     0.404858300  0.233745048  0.000000000
    -1.235000000  2.139082747  0.000000000     0.000000000  0.467490097  0.000000000
     0.000000000  0.000000000  8.090000000     0.000000000  0.000000000  0.123609394

  length of vectors
     2.470000000  2.470000000  8.090000000     0.467490097  0.467490097  0.123609394

 FORCES acting on ions
    electron-ion (+dipol)            ewald-force                    non-local-force                 convergence-correction
   -.497E-05 0.287E-05 0.139E-13   -.208E-13 0.254E-14 -.503E-13   0.000E+00 0.000E+00 0.000E+00   0.202E-12 -.103E-12 -.129E-12
   -.400E-05 0.231E-05 -.675E-12   -.268E-13 0.108E-13 0.503E-13   0.542E-19 0.000E+00 0.000E+00   -.217E-11 0.125E-11 0.139E-12
   -.897E-05 0.518E-05 -.661E-12   -.476E-13 0.133E-13 0.000E+00   0.542E-19 0.000E+00 0.000E+00   -.197E-11 0.115E-11 0.101E-13

 POSITION                                       TOTAL-FORCE (eV/Angst)
      0.00000      0.00000      0.00000        -0.000000     -0.000000      0.000000
      0.00000      1.42606      4.04500         0.000000      0.000000      0.000000
    total drift:                               -0.000009      0.000005     -0.000000

  FREE ENERGIE OF THE ION-ELECTRON SYSTEM (eV)
  free  energy   TOTEN  =       -11.16499445 eV

  energy  without entropy=      -11.15657861  energy(sigma->0) =      -11.16078653