 vasp.6.3.2 27Jun22 (build Aug 12 2022 00:53:59) complex

 executed on               tv2STD date 2024.12.03  01:40:06

 INCAR:
   SYSTEM = Co-fcc
   NWRITE = 2    write-flag
   ISTART = 0    job   : 0-new, 1-cont, 2-samecut
   ICHARG = 2    charge: 0-wave, 1-file, 2-atom, >10-const
   INIWAV = 1    electr: 0-lowe 1-rand  2-diag
   ENCUT = 400.0     energy cutoff in eV
   PREC = Accurate      normal | accurate
   ADDGRID = .FALSE.  (use fine grid)
   NELM = 100     number of ELM steps
   EDIFF = 1E-06    energy stopping-criterion for ELM
   LREAL = .FALSE.      real-space projection (.FALSE., .TRUE., On, Auto)
   ALGO = Normal     Normal, Fast, Very_Fast
   LWAVE = .TRUE.
   LCHARG = .TRUE.
   NSW = 100       max number of geometry steps
   IBRION = 2     ionic relax: 0-MD, 1-quasi-Newton, 2-CG, 3-Damped MD
   EDIFFG = -0.02  force (eV/A) stopping-criterion for geometry steps
   ISIF = 2     (1:force\=y stress\=trace only ions\=y shape\=n volume\=n)
   ISYM = 1     (1-use symmetry, 0-no symmetry)
   ISMEAR = 0     (-1-Fermi, 1-Methfessel/Paxton)
   SIGMA = 0.05   broadening in eV
   LORBIT = 11
   NPAR = 4
   ISPIN = 2
   MAGMOM = 1*3

 POTCAR:    PAW_PBE Co 02Aug2007
 POTCAR:    PAW_PBE Co 02Aug2007
   VRHFIN =Co: d8 s1

   TITEL  = PAW_PBE Co 02Aug2007
   POMASS =   58.933; ZVAL   =    9.000    mass and valenz
   ENMAX  =  267.968; ENMIN  =  200.976 eV

  PAW_PBE Co 02Aug2007                  :

 POSCAR: Co
  positions in cartesian coordinates
 exchange correlation table for  LEXCH =        8
   RHO(1)=    0.500       N(1)  =     2000
   RHO(2)=  100.500       N(2)  =     4000

 ion  position               nearest neighbor table
   1  0.000  0.000  0.000-

  LATTYP: Found a face centered cubic cell.
 ALAT       =     3.1576816021

  Lattice vectors:

 A1 = (   0.0000000000,   1.5788408010,   1.5788408010)
 A2 = (   1.5788408010,   0.0000000000,   1.5788408010)
 A3 = (   1.5788408010,   1.5788408010,   0.0000000000)

Analysis of symmetry for initial positions (statically):
 Subroutine PRICEL returns:
 Original cell was already a primitive cell.

 Routine SETGRP: Setting up the symmetry group for a
 face centered cubic supercell.

 Subroutine GETGRP returns: Found 48 space group operations
 (whereof 48 operations were pure point group operations)
 out of a pool of 48 trial point group operations.

The static configuration has the point symmetry O_h .

Analysis of symmetry for dynamics (positions and initial velocities):
 Subroutine PRICEL returns:
 Original cell was already a primitive cell.

[...]

The dynamic configuration has the point symmetry O_h .

Analysis of structural, dynamic, and magnetic symmetry:
 Subroutine PRICEL returns:
 Original cell was already a primitive cell.

 Routine SETGRP: Setting up the symmetry group for a
 face centered cubic supercell.

 Subroutine GETGRP returns: Found 48 space group operations
 (whereof 48 operations were pure point group operations)
 out of a pool of 48 trial point group operations.

The overall configuration has the point symmetry O_h .

 Subroutine INISYM returns: Found 48 space group operations
 (whereof 48 operations are pure point group operations),
 and found     1 'primitive' translations

                                     Primitive cell

  volume of cell :       7.8713

  direct lattice vectors                    reciprocal lattice vectors
     0.000000000  1.578840801  1.578840801    -0.316688041  0.316688041  0.316688041
     1.578840801  0.000000000  1.578840801     0.316688041 -0.316688041  0.316688041
     1.578840801  1.578840801  0.000000000     0.316688041  0.316688041 -0.316688041

  length of vectors
     2.232818074  2.232818074  2.232818074     0.548519777  0.548519777  0.548519777

  position of ions in fractional coordinates (direct lattice)
     0.000000000  0.000000000  0.000000000

  ion indices of the primitive-cell ions
   primitive index   ion index
                 1           1

 KPOINTS: Automatic mesh

Automatic generation of k-mesh.
 Grid dimensions read from file:
 generate k-points for:    8    8    8

 Generating k-lattice:

  Cartesian coordinates                     Fractional coordinates (reciprocal lattice)
    -0.039586005  0.039586005  0.039586005     0.125000000  0.000000000  0.000000000
     0.039586005 -0.039586005  0.039586005     0.000000000  0.125000000  0.000000000
     0.039586005  0.039586005 -0.039586005     0.000000000  0.000000000  0.125000000

  Length of vectors
     0.068564972  0.068564972  0.068564972

  Shift w.r.t. Gamma in fractional coordinates (k-lattice)
     0.500000000  0.500000000  0.500000000

 Subroutine IBZKPT returns following result:

 Found     60 irreducible k-points:

 Following reciprocal coordinates:
            Coordinates               Weight
  0.062500  0.062500  0.062500      8.000000
  0.187500  0.062500  0.062500     24.000000
  0.312500  0.062500  0.062500     24.000000
  0.437500  0.062500  0.062500     24.000000
 -0.437500  0.062500  0.062500     24.000000
 -0.312500  0.062500  0.062500     24.000000
 -0.187500  0.062500  0.062500     24.000000
 -0.062500  0.062500  0.062500     24.000000
  0.187500  0.187500  0.062500     24.000000
  0.312500  0.187500  0.062500     48.000000
  0.437500  0.187500  0.062500     48.000000
 -0.437500  0.187500  0.062500     48.000000
 -0.312500  0.187500  0.062500     48.000000
 -0.187500  0.187500  0.062500     48.000000
 -0.062500  0.187500  0.062500     48.000000
  0.312500  0.312500  0.062500     24.000000
  0.437500  0.312500  0.062500     48.000000
 -0.437500  0.312500  0.062500     48.000000
 -0.312500  0.312500  0.062500     48.000000
 -0.187500  0.312500  0.062500     48.000000
 -0.062500  0.312500  0.062500     48.000000
  0.437500  0.437500  0.062500     24.000000
 -0.437500  0.437500  0.062500     48.000000
 -0.312500  0.437500  0.062500     48.000000
 -0.187500  0.437500  0.062500     48.000000
 -0.062500  0.437500  0.062500     48.000000
 -0.437500 -0.437500  0.062500     24.000000
 -0.312500 -0.437500  0.062500     48.000000
 -0.187500 -0.437500  0.062500     48.000000
 -0.312500 -0.312500  0.062500     24.000000
 -0.187500 -0.312500  0.062500     48.000000
 -0.187500 -0.187500  0.062500     24.000000
  0.187500  0.187500  0.187500      8.000000
  0.312500  0.187500  0.187500     24.000000
  0.437500  0.187500  0.187500     24.000000
 -0.437500  0.187500  0.187500     24.000000
 -0.312500  0.187500  0.187500     24.000000
 -0.187500  0.187500  0.187500     24.000000
  0.312500  0.312500  0.187500     24.000000
  0.437500  0.312500  0.187500     48.000000
 -0.437500  0.312500  0.187500     48.000000
 -0.312500  0.312500  0.187500     48.000000
 -0.187500  0.312500  0.187500     48.000000
  0.437500  0.437500  0.187500     24.000000
 -0.437500  0.437500  0.187500     48.000000
 -0.312500  0.437500  0.187500     48.000000
 -0.187500  0.437500  0.187500     48.000000
 -0.437500 -0.437500  0.187500     24.000000
 -0.312500 -0.437500  0.187500     48.000000
 -0.312500 -0.312500  0.187500     24.000000
  0.312500  0.312500  0.312500      8.000000
  0.437500  0.312500  0.312500     24.000000
 -0.437500  0.312500  0.312500     24.000000
 -0.312500  0.312500  0.312500     24.000000
  0.437500  0.437500  0.312500     24.000000
 -0.437500  0.437500  0.312500     48.000000
 -0.312500  0.437500  0.312500     48.000000
 -0.437500 -0.437500  0.312500     24.000000
  0.437500  0.437500  0.437500      8.000000
 -0.437500  0.437500  0.437500     24.000000

 Following cartesian coordinates:
            Coordinates               Weight
  0.019793  0.019793  0.019793      8.000000
 -0.019793  0.059379  0.059379     24.000000
 -0.059379  0.098965  0.098965     24.000000
 -0.098965  0.138551  0.138551     24.000000
  0.178137 -0.138551 -0.138551     24.000000
  0.138551 -0.098965 -0.098965     24.000000
  0.098965 -0.059379 -0.059379     24.000000
  0.059379 -0.019793 -0.019793     24.000000
  0.019793  0.019793  0.098965     24.000000
 -0.019793  0.059379  0.138551     48.000000
 -0.059379  0.098965  0.178137     48.000000
  0.217723 -0.178137 -0.098965     48.000000
  0.178137 -0.138551 -0.059379     48.000000
  0.138551 -0.098965 -0.019793     48.000000
  0.098965 -0.059379  0.019793     48.000000
  0.019793  0.019793  0.178137     24.000000
 -0.019793  0.059379  0.217723     48.000000
  0.257309 -0.217723 -0.059379     48.000000
  0.217723 -0.178137 -0.019793     48.000000
  0.178137 -0.138551  0.019793     48.000000
  0.138551 -0.098965  0.059379     48.000000
  0.019793  0.019793  0.257309     24.000000
  0.296895 -0.257309 -0.019793     48.000000
  0.257309 -0.217723  0.019793     48.000000
  0.217723 -0.178137  0.059379     48.000000
  0.178137 -0.138551  0.098965     48.000000
  0.019793  0.019793 -0.296895     24.000000
 -0.019793  0.059379 -0.257309     48.000000
 -0.059379  0.098965 -0.217723     48.000000
  0.019793  0.019793 -0.217723     24.000000
 -0.019793  0.059379 -0.178137     48.000000
  0.019793  0.019793 -0.138551     24.000000
  0.059379  0.059379  0.059379      8.000000
  0.019793  0.098965  0.098965     24.000000
 -0.019793  0.138551  0.138551     24.000000
  0.257309 -0.138551 -0.138551     24.000000
  0.217723 -0.098965 -0.098965     24.000000
  0.178137 -0.059379 -0.059379     24.000000
  0.059379  0.059379  0.138551     24.000000
  0.019793  0.098965  0.178137     48.000000
  0.296895 -0.178137 -0.098965     48.000000
  0.257309 -0.138551 -0.059379     48.000000
  0.217723 -0.098965 -0.019793     48.000000
  0.059379  0.059379  0.217723     24.000000
  0.336481 -0.217723 -0.059379     48.000000
  0.296895 -0.178137 -0.019793     48.000000
  0.257309 -0.138551  0.019793     48.000000
  0.059379  0.059379 -0.336481     24.000000
  0.019793  0.098965 -0.296895     48.000000
  0.059379  0.059379 -0.257309     24.000000
  0.098965  0.098965  0.098965      8.000000
  0.059379  0.138551  0.138551     24.000000
  0.336481 -0.138551 -0.138551     24.000000
  0.296895 -0.098965 -0.098965     24.000000
  0.098965  0.098965  0.178137     24.000000
  0.376067 -0.178137 -0.098965     48.000000
  0.336481 -0.138551 -0.059379     48.000000
  0.098965  0.098965 -0.376067     24.000000
  0.138551  0.138551  0.138551      8.000000
  0.415653 -0.138551 -0.138551     24.000000

 SYSTEM =  Co-fcc
 POSCAR =  Co

 Startparameter for this run:
   NWRITE =      2    write-flag & timer
   PREC   = accura    normal or accurate (medium, high low for compatibility)
   ISTART =      0    job   : 0-new  1-cont  2-samecut
   ICHARG =      2    charge: 1-file 2-atom 10-const
   ISPIN  =      2    spin polarized calculation?
   LNONCOLLINEAR =      F non collinear calculations
   LSORBIT =      F    spin-orbit coupling
   INIWAV =      1    electr: 0-lowe 1-rand  2-diag
   LASPH  =      F    aspherical Exc in radial PAW
 Electronic Relaxation 1
   ENCUT  =  400.0 eV  29.40 Ry    5.42 a.u.   3.64  3.64  3.64*2*pi/ulx,y,z
   ENINI  =  400.0     initial cutoff
   ENAUG  =  477.8 eV  augmentation charge cutoff
   NELM   =    100;   NELMIN=  2; NELMDL= -5     # of ELM steps
   EDIFF  = 0.1E-05   stopping-criterion for ELM
   LREAL  =      F    real-space projection
   NLSPLINE    = F    spline interpolate recip. space projectors
[...]
   0.05937901  0.05937901 -0.25730903       0.012
   0.09896501  0.09896501  0.09896501       0.004
   0.05937901  0.13855102  0.13855102       0.012
   0.33648104 -0.13855102 -0.13855102       0.012
   0.29689504 -0.09896501 -0.09896501       0.012
   0.09896501  0.09896501  0.17813702       0.012
   0.37606705 -0.17813702 -0.09896501       0.023
   0.33648104 -0.13855102 -0.05937901       0.023
   0.09896501  0.09896501 -0.37606705       0.012
   0.13855102  0.13855102  0.13855102       0.004
   0.41565305 -0.13855102 -0.13855102       0.012

 k-points in reciprocal lattice and weights: Automatic mesh
   0.06250000  0.06250000  0.06250000       0.004
   0.18750000  0.06250000  0.06250000       0.012
   0.31250000  0.06250000  0.06250000       0.012
   0.43750000  0.06250000  0.06250000       0.012
  -0.43750000  0.06250000  0.06250000       0.012
  -0.31250000  0.06250000  0.06250000       0.012
  -0.18750000  0.06250000  0.06250000       0.012
  -0.06250000  0.06250000  0.06250000       0.012
   0.18750000  0.18750000  0.06250000       0.012
   0.31250000  0.18750000  0.06250000       0.023
   0.43750000  0.18750000  0.06250000       0.023
  -0.43750000  0.18750000  0.06250000       0.023
  -0.31250000  0.18750000  0.06250000       0.023
  -0.18750000  0.18750000  0.06250000       0.023
  -0.06250000  0.18750000  0.06250000       0.023
   0.31250000  0.31250000  0.06250000       0.012
   0.43750000  0.31250000  0.06250000       0.023
  -0.43750000  0.31250000  0.06250000       0.023
  -0.31250000  0.31250000  0.06250000       0.023
  -0.18750000  0.31250000  0.06250000       0.023
  -0.06250000  0.31250000  0.06250000       0.023
   0.43750000  0.43750000  0.06250000       0.012
  -0.43750000  0.43750000  0.06250000       0.023
  -0.31250000  0.43750000  0.06250000       0.023
  -0.18750000  0.43750000  0.06250000       0.023
  -0.06250000  0.43750000  0.06250000       0.023
  -0.43750000 -0.43750000  0.06250000       0.012
  -0.31250000 -0.43750000  0.06250000       0.023
  -0.18750000 -0.43750000  0.06250000       0.023
  -0.31250000 -0.31250000  0.06250000       0.012
  -0.18750000 -0.31250000  0.06250000       0.023
  -0.18750000 -0.18750000  0.06250000       0.012
   0.18750000  0.18750000  0.18750000       0.004
   0.31250000  0.18750000  0.18750000       0.012
   0.43750000  0.18750000  0.18750000       0.012
  -0.43750000  0.18750000  0.18750000       0.012
  -0.31250000  0.18750000  0.18750000       0.012
  -0.18750000  0.18750000  0.18750000       0.012
   0.31250000  0.31250000  0.18750000       0.012
   0.43750000  0.31250000  0.18750000       0.023
  -0.43750000  0.31250000  0.18750000       0.023
  -0.31250000  0.31250000  0.18750000       0.023
  -0.18750000  0.31250000  0.18750000       0.023
   0.43750000  0.43750000  0.18750000       0.012
  -0.43750000  0.43750000  0.18750000       0.023
  -0.31250000  0.43750000  0.18750000       0.023
  -0.18750000  0.43750000  0.18750000       0.023
  -0.43750000 -0.43750000  0.18750000       0.012
  -0.31250000 -0.43750000  0.18750000       0.023
  -0.31250000 -0.31250000  0.18750000       0.012
   0.31250000  0.31250000  0.31250000       0.004
   0.43750000  0.31250000  0.31250000       0.012
  -0.43750000  0.31250000  0.31250000       0.012
  -0.31250000  0.31250000  0.31250000       0.012
   0.43750000  0.43750000  0.31250000       0.012
  -0.43750000  0.43750000  0.31250000       0.023
  -0.31250000  0.43750000  0.31250000       0.023
  -0.43750000 -0.43750000  0.31250000       0.012
   0.43750000  0.43750000  0.43750000       0.004
  -0.43750000  0.43750000  0.43750000       0.012

 position of ions in fractional coordinates (direct lattice)
   0.00000000  0.00000000  0.00000000

 position of ions in cartesian coordinates  (Angst):
   0.00000000  0.00000000  0.00000000

 k-point   1 :   0.0625 0.0625 0.0625  plane waves:     147
 k-point   2 :   0.1875 0.0625 0.0625  plane waves:     148
 k-point   3 :   0.3125 0.0625 0.0625  plane waves:     147
 k-point   4 :   0.4375 0.0625 0.0625  plane waves:     147
 k-point   5 :  -0.4375 0.0625 0.0625  plane waves:     143
 k-point   6 :  -0.3125 0.0625 0.0625  plane waves:     148
 k-point   7 :  -0.1875 0.0625 0.0625  plane waves:     147
 k-point   8 :  -0.0625 0.0625 0.0625  plane waves:     148
 k-point   9 :   0.1875 0.1875 0.0625  plane waves:     146
 k-point  10 :   0.3125 0.1875 0.0625  plane waves:     144
 k-point  11 :   0.4375 0.1875 0.0625  plane waves:     145
 k-point  12 :  -0.4375 0.1875 0.0625  plane waves:     141
 k-point  13 :  -0.3125 0.1875 0.0625  plane waves:     141
 k-point  14 :  -0.1875 0.1875 0.0625  plane waves:     145
 k-point  15 :  -0.0625 0.1875 0.0625  plane waves:     145
 k-point  16 :   0.3125 0.3125 0.0625  plane waves:     141
 k-point  17 :   0.4375 0.3125 0.0625  plane waves:     142
 k-point  18 :  -0.4375 0.3125 0.0625  plane waves:     141
 k-point  19 :  -0.3125 0.3125 0.0625  plane waves:     140
 k-point  20 :  -0.1875 0.3125 0.0625  plane waves:     142
 k-point  21 :  -0.0625 0.3125 0.0625  plane waves:     146
 k-point  22 :   0.4375 0.4375 0.0625  plane waves:     135
 k-point  23 :  -0.4375 0.4375 0.0625  plane waves:     139
 k-point  24 :  -0.3125 0.4375 0.0625  plane waves:     140
 k-point  25 :  -0.1875 0.4375 0.0625  plane waves:     143
 k-point  26 :  -0.0625 0.4375 0.0625  plane waves:     145
 k-point  27 :  -0.4375-0.4375 0.0625  plane waves:     144
 k-point  28 :  -0.3125-0.4375 0.0625  plane waves:     139
 k-point  29 :  -0.1875-0.4375 0.0625  plane waves:     144
 k-point  30 :  -0.3125-0.3125 0.0625  plane waves:     141
 k-point  31 :  -0.1875-0.3125 0.0625  plane waves:     144
 k-point  32 :  -0.1875-0.1875 0.0625  plane waves:     143
 k-point  33 :   0.1875 0.1875 0.1875  plane waves:     150
 k-point  34 :   0.3125 0.1875 0.1875  plane waves:     143
 k-point  35 :   0.4375 0.1875 0.1875  plane waves:     144
 k-point  36 :  -0.4375 0.1875 0.1875  plane waves:     142
 k-point  37 :  -0.3125 0.1875 0.1875  plane waves:     144
 k-point  38 :  -0.1875 0.1875 0.1875  plane waves:     145
 k-point  39 :   0.3125 0.3125 0.1875  plane waves:     143
 k-point  40 :   0.4375 0.3125 0.1875  plane waves:     145
 k-point  41 :  -0.4375 0.3125 0.1875  plane waves:     142
 k-point  42 :  -0.3125 0.3125 0.1875  plane waves:     141
 k-point  43 :  -0.1875 0.3125 0.1875  plane waves:     143
 k-point  44 :   0.4375 0.4375 0.1875  plane waves:     139
 k-point  45 :  -0.4375 0.4375 0.1875  plane waves:     143
 k-point  46 :  -0.3125 0.4375 0.1875  plane waves:     146
 k-point  47 :  -0.1875 0.4375 0.1875  plane waves:     143
 k-point  48 :  -0.4375-0.4375 0.1875  plane waves:     140
 k-point  49 :  -0.3125-0.4375 0.1875  plane waves:     140
 k-point  50 :  -0.3125-0.3125 0.1875  plane waves:     141
 k-point  51 :   0.3125 0.3125 0.3125  plane waves:     144
 k-point  52 :   0.4375 0.3125 0.3125  plane waves:     146
 k-point  53 :  -0.4375 0.3125 0.3125  plane waves:     140
 k-point  54 :  -0.3125 0.3125 0.3125  plane waves:     140
 k-point  55 :   0.4375 0.4375 0.3125  plane waves:     147
 k-point  56 :  -0.4375 0.4375 0.3125  plane waves:     141
 k-point  57 :  -0.3125 0.4375 0.3125  plane waves:     145
 k-point  58 :  -0.4375-0.4375 0.3125  plane waves:     140
 k-point  59 :   0.4375 0.4375 0.4375  plane waves:     147
 k-point  60 :  -0.4375 0.4375 0.4375  plane waves:     145

 maximum and minimum number of plane-waves per node :        28       11

 maximum number of plane-waves:       150
 maximum index in each direction:
   IXMAX=    4   IYMAX=    4   IZMAX=    3
   IXMIN=   -4   IYMIN=   -4   IZMIN=   -4

 parallel 3D FFT for wavefunctions:
    minimum data exchange during FFTs selected (reduces bandwidth)
 parallel 3D FFT for charge:
    minimum data exchange during FFTs selected (reduces bandwidth)

 Broyden mixing: mesh for mixing (old mesh)
   NGX =  7   NGY =  7   NGZ =  7
  (NGX  = 32   NGY  = 32   NGZ  = 32)
  gives a total of    343 points

 initial charge density was supplied:
 charge density of overlapping atoms calculated
 number of electron       9.0000000 magnetization       3.0000000
 keeping initial charge density in first step

 Maximum index for augmentation-charges         1600 (set IRDMAX)

 First call to EWALD:  gamma=   0.891
 Maximum number of real-space cells 3x 3x 3
 Maximum number of reciprocal cells 3x 3x 3

--------------------------------------- Iteration      1(   1)  ---------------------------------------

 eigenvalue-minimisations  :  3040
 total energy-change (2. order) : 0.2189722E+02  (-0.3437609E+03)
 number of electron       9.0000000 magnetization       3.0000000
 augmentation part        9.0000000 magnetization       3.0000000

 Free energy of the ion-electron system (eV)
  alpha Z        PSCENC =        53.81300668
  Ewald energy   TEWEN  =      -846.77696420
  -Hartree energ DENC   =      -117.00069821
  -exchange      EXHF   =         0.00000000
  -V(xc)+E(xc)   XCENC  =        19.02055763
  PAW double counting   =       719.99081943     -772.94345096
  entropy T*S    EENTRO =        -0.00071195
  eigenvalues    EBANDS =       152.43692944
  atomic energy  EATOM  =       813.35773410
  Solvation  Ediel_sol  =         0.00000000
  free energy    TOTEN  =        21.89722195 eV

  energy without entropy =       21.89793390  energy(sigma->0) =       21.89757793

[...]

 eigenvalue-minimisations  :  3060
 total energy-change (2. order) :-0.2761342E+02  (-0.2560890E+02)
 number of electron       9.0000000 magnetization       3.0000000
 augmentation part        9.0000000 magnetization       3.0000000

[...]

 Broyden mixing:
  rms(total) = 0.18031E+01    rms(broyden)= 0.18030E+01
  rms(prec ) = 0.32553E+01
  weight for this iteration     100.00

[...]

 eigenvalues of (default mixing * dielectric matrix)
  average eigenvalue GAMMA=   0.9778
  0.9778

[...]

 eigenvalue-minimisations  :  3848
 total energy-change (2. order) : 0.1785407E-02  (-0.1985372E-04)
 number of electron       9.0000010 magnetization       1.6424469
 augmentation part        5.0829043 magnetization       1.5163294

[...]

 Broyden mixing:
  rms(total) = 0.14537E+00    rms(broyden)= 0.14537E+00
  rms(prec ) = 0.14892E+00
  weight for this iteration     100.00

 eigenvalues of (default mixing * dielectric matrix)
  average eigenvalue GAMMA=   2.9515
 61.0452 10.7514 10.7514  6.3468  2.8135  3.5612  3.3057  3.3057  2.5047  1.7486
  1.7486  2.0215  2.0215  0.5771  1.5837  0.5914  0.5914  1.1690  1.1690  0.2161
  0.2161  0.9296  0.9296  0.9825  0.0108  0.0356  0.0984  0.4876  0.4876  0.1530
  0.2579  0.2579  0.7749  0.7749  0.6697  0.6697  0.5393  0.5393  0.4198  0.4198
  0.5370  0.6163  0.6163  0.6205

[...]

--------------------------------------- Iteration      1( 100)  ---------------------------------------

 eigenvalue-minimisations  :  3728
 total energy-change (2. order) :-0.8245266E-02  (-0.2223866E-03)
 number of electron       9.0000010 magnetization       0.6332973
 augmentation part        5.0800653 magnetization       0.5984388

 Free energy of the ion-electron system (eV)
  alpha Z        PSCENC =        53.81300668
  Ewald energy   TEWEN  =      -846.77696420
  -Hartree energ DENC   =      -100.09728653
  -exchange      EXHF   =         0.00000000
  -V(xc)+E(xc)   XCENC  =        17.11011009
  PAW double counting   =      1150.16026965    -1205.17965866
  entropy T*S    EENTRO =        -0.00184284
  eigenvalues    EBANDS =       111.52516430
  atomic energy  EATOM  =       813.35773410
  Solvation  Ediel_sol  =         0.00000000
  free energy    TOTEN  =        -6.08946741 eV

  energy without entropy =       -6.08762457  energy(sigma->0) =       -6.08854599

 average (electrostatic) potential at core
  the test charge radii are     1.0452
  (the norm of the test charge is              1.0000)
       1 -73.3619

 E-fermi :  15.7863     XC(G=0): -15.4244     alpha+bet :-24.4362

 Fermi energy:        15.7863494642

 spin component 1

 k-point     1 :       0.0625    0.0625    0.0625
  band No.  band energies     occupation
      1       4.9649      1.00000
      2      12.5681      1.00000
      3      12.7081      1.00000
      4      12.7081      1.00000
      5      14.5935      1.00000
      6      14.5935      1.00000
      7      41.2510      0.00000
      8      46.4056      0.00000
      9      48.3128      0.00000
     10      48.3128      0.00000
     11      52.7159      0.00000
     12      54.0534      0.00000

[...]

 k-point    60 :      -0.4375    0.4375    0.4375
  band No.  band energies     occupation
      1       9.3591      1.00000
      2      12.0176      1.00000
      3      12.9101      1.00000
      4      13.5115      1.00000
      5      15.8300      0.10838
      6      18.5469      0.00000
      7      25.6371      0.00000
      8      38.2115      0.00000
      9      43.7143      0.00000
     10      44.3136      0.00000
     11      52.5145      0.00000
     12      53.1325      0.00000
 Fermi energy:        15.7863494642

 spin component 2

[...]

 k-point    60 :      -0.4375    0.4375    0.4375
  band No.  band energies     occupation
      1       9.7392      1.00000
      2      12.5988      1.00000
      3      13.5727      1.00000
      4      13.8988      1.00000
      5      16.5828      0.00000
      6      18.9908      0.00000
      7      26.0430      0.00000
      8      38.2733      0.00000
      9      43.8145      0.00000
     10      44.4758      0.00000
     11      53.1891      0.00000
     12      53.2652      0.00000

 soft charge-density along one line, spin component           1
         0         1         2         3         4         5         6         7         8         9
 total charge-density along one line

 soft charge-density along one line, spin component           2
         0         1         2         3         4         5         6         7         8         9
 total charge-density along one line

------------------------ aborting loop EDIFF was not reached (unconverged)  ----------------------------

 total charge

# of ion       s       p       d       tot
    1        0.658   0.875   7.584   9.117

 magnetization (x)

[...]

  FORCE on cell =-STRESS in cart. coord.  units (eV):
  Direction    XX          YY          ZZ          XY          YZ          ZX
  Alpha Z    53.81301    53.81301    53.81301
  Ewald    -282.25900  -282.25900  -282.25900    -0.00000    -0.00000     0.00000
  Hartree    33.26649    33.26649    33.26649     0.00000     0.00000     0.00000
  E(xc)     -47.44750   -47.44750   -47.44750     0.00006     0.00006     0.00006
  Local      12.71384    12.71384    12.71384     0.00002     0.00002     0.00002
  n-local     1.86709     3.70098    -0.86316     2.78867    -2.64946     0.15402
  augment   152.79684   152.79684   152.79684     0.00010     0.00010     0.00010
  Kinetic    79.47148    81.93297    82.52728    -0.28496     0.33141     0.08538
  Fock        0.00000     0.00000     0.00000     0.00000     0.00000     0.00000
  Total       5.76256     5.76256     5.76256     0.00000     0.00000     0.00000
  in kB    1172.95361  1172.95361  1172.95361     0.00000     0.00000     0.00000

 VOLUME and BASIS-vectors are now :
  energy-cutoff  :      400.00
  volume of cell :        7.87
      direct lattice vectors                 reciprocal lattice vectors
     0.000000000  1.578840801  1.578840801    -0.316688041  0.316688041  0.316688041
     1.578840801  0.000000000  1.578840801     0.316688041 -0.316688041  0.316688041
     1.578840801  1.578840801  0.000000000     0.316688041  0.316688041 -0.316688041

  length of vectors
     2.232818074  2.232818074  2.232818074     0.548519777  0.548519777  0.548519777

 FORCES acting on ions
    electron-ion (+dipol)            ewald-force                    non-local-force                 convergence-correction
   0.763E-15 0.632E-15 0.545E-15   -.810E-15 -.133E-14 -.124E-14   -.414E-24 -.620E-24 -.414E-24   -.580E-13 0.340E-14 -.416E-13
   0.763E-15 0.632E-15 0.545E-15   -.810E-15 -.133E-14 -.124E-14   -.414E-24 -.620E-24 -.414E-24   -.580E-13 0.340E-14 -.416E-13

 POSITION                                       TOTAL-FORCE (eV/Angst)
      0.00000      0.00000      0.00000        -0.000000     -0.000000      0.000000
    total drift:                               -0.000000      0.000000     -0.000000

  FREE ENERGIE OF THE ION-ELECTRON SYSTEM (eV)
  free  energy   TOTEN  =        -6.08946741 eV

  energy  without entropy=       -6.08762457  energy(sigma->0) =       -6.08854599

 reached required accuracy - stopping structural energy minimisation
 writing wavefunctions

 total charge

[...]

 magnetization (x)

# of ion       s       p       d       tot
    1       -0.008  -0.024   0.477   0.445