 vasp.6.3.2 27Jun22 (build Aug 12 2022 00:53:59) complex

 executed on               tv2STD date 2024.11.30  16:00:35

 INCAR:
   SYSTEM = Pt-fcc
   NWRITE = 2    write-flag
   ISTART = 0    job   : 0-new, 1-cont, 2-samecut
   ICHARG = 2    charge: 0-wave, 1-file, 2-atom, >10-const
   INIWAV = 1    electr: 0-lowe 1-rand  2-diag
   ENCUT = 425.0     energy cutoff in eV
   PREC = accurate      normal | accurate
   ADDGRID = .FALSE.  (use fine grid)
   NELM = 100     number of ELM steps
   EDIFF = 1E-06    energy stopping-criterion for ELM
   LREAL = .FALSE.      real-space projection (.FALSE., .TRUE., On, Auto)
   ALGO = Normal     Normal, Fast, Very_Fast
   LWAVE = .TRUE.
   LCHARG = .TRUE.
   NSW = 100       max number of geometry steps
   IBRION = 2     ionic relax: 0-MD, 1-quasi-Newton, 2-CG, 3-Damped MD
   EDIFFG = -0.02  force (eV/A) stopping-criterion for geometry steps
   ISIF = 3     (1:force\=y stress\=trace only ions\=y shape\=n volume\=n)
   ISYM = 1     (1-use symmetry, 0-no symmetry)
   ISMEAR = 0     (-1-Fermi, 1-Methfessel/Paxton)
   SIGMA = 0.05   broadening in eV
   LORBIT = 11

 POTCAR:    PAW_PBE Pt_pv 12Dec2005
 POTCAR:    PAW_PBE Pt_pv 12Dec2005
   VRHFIN =Pt: 5ps1d9

   TITEL  = PAW_PBE Pt_pv 12Dec2005
   POMASS =  195.080; ZVAL   =   16.000    mass and valenz
   ENMAX  =  294.607; ENMIN  =  220.955 eV

  PAW_PBE Pt_pv 12Dec2005               :

 POSCAR: Pt
  positions in cartesian coordinates
 exchange correlation table for  LEXCH =        8
   RHO(1)=    0.500       N(1)  =     2000
   RHO(2)=  100.500       N(2)  =     4000

 ion  position               nearest neighbor table
   1  0.000  0.000  0.000-

  LATTYP: Found a face centered cubic cell.
 ALAT       =     3.9400000000

  Lattice vectors:

 A1 = (   0.0000000000,   1.9700000000,   1.9700000000)
 A2 = (   1.9700000000,   0.0000000000,   1.9700000000)
 A3 = (   1.9700000000,   1.9700000000,   0.0000000000)

Analysis of symmetry for initial positions (statically):
 Subroutine PRICEL returns:
 Original cell was already a primitive cell.

 Routine SETGRP: Setting up the symmetry group for a
 face centered cubic supercell.

 Subroutine GETGRP returns: Found 48 space group operations
 (whereof 48 operations were pure point group operations)
 out of a pool of 48 trial point group operations.

The static configuration has the point symmetry O_h .

Analysis of symmetry for dynamics (positions and initial velocities):
 Subroutine PRICEL returns:
 Original cell was already a primitive cell.

 Routine SETGRP: Setting up the symmetry group for a
 face centered cubic supercell.

 Subroutine GETGRP returns: Found 48 space group operations
 (whereof 48 operations were pure point group operations)
 out of a pool of 48 trial point group operations.

The dynamic configuration has the point symmetry O_h .

 Subroutine INISYM returns: Found 48 space group operations
 (whereof 48 operations are pure point group operations),
 and found     1 'primitive' translations

                                     Primitive cell

  volume of cell :      15.2907

  direct lattice vectors                    reciprocal lattice vectors
     0.000000000  1.970000000  1.970000000    -0.253807107  0.253807107  0.253807107
     1.970000000  0.000000000  1.970000000     0.253807107 -0.253807107  0.253807107
     1.970000000  1.970000000  0.000000000     0.253807107  0.253807107 -0.253807107

  length of vectors
     2.786000718  2.786000718  2.786000718     0.439606804  0.439606804  0.439606804

  position of ions in fractional coordinates (direct lattice)
     0.000000000  0.000000000  0.000000000

  ion indices of the primitive-cell ions
   primitive index   ion index
                 1           1

 KPOINTS: Automatic mesh

Automatic generation of k-mesh.
 Grid dimensions read from file:
 generate k-points for:   10   10   10

 Generating k-lattice:

  Cartesian coordinates                     Fractional coordinates (reciprocal lattice)
    -0.025380711  0.025380711  0.025380711     0.100000000  0.000000000  0.000000000
     0.025380711 -0.025380711  0.025380711     0.000000000  0.100000000  0.000000000
     0.025380711  0.025380711 -0.025380711     0.000000000  0.000000000  0.100000000

  Length of vectors
     0.043960680  0.043960680  0.043960680

  Shift w.r.t. Gamma in fractional coordinates (k-lattice)
     0.500000000  0.500000000  0.500000000

 Subroutine IBZKPT returns following result:

 Found    110 irreducible k-points:

 Following reciprocal coordinates:
            Coordinates               Weight
  0.050000  0.050000  0.050000      8.000000
  0.150000  0.050000  0.050000     24.000000
  0.250000  0.050000  0.050000     24.000000
  0.350000  0.050000  0.050000     24.000000
  0.450000  0.050000  0.050000     24.000000
 -0.450000  0.050000  0.050000     24.000000
 -0.350000  0.050000  0.050000     24.000000
 -0.250000  0.050000  0.050000     24.000000
 -0.150000  0.050000  0.050000     24.000000
 -0.050000  0.050000  0.050000     24.000000
  0.150000  0.150000  0.050000     24.000000
  0.250000  0.150000  0.050000     48.000000
  0.350000  0.150000  0.050000     48.000000
  0.450000  0.150000  0.050000     48.000000
 -0.450000  0.150000  0.050000     48.000000
 -0.350000  0.150000  0.050000     48.000000
 -0.250000  0.150000  0.050000     48.000000
 -0.150000  0.150000  0.050000     48.000000
 -0.050000  0.150000  0.050000     48.000000
  0.250000  0.250000  0.050000     24.000000
  0.350000  0.250000  0.050000     48.000000
  0.450000  0.250000  0.050000     48.000000
 -0.450000  0.250000  0.050000     48.000000
 -0.350000  0.250000  0.050000     48.000000
 -0.250000  0.250000  0.050000     48.000000
 -0.150000  0.250000  0.050000     48.000000
 -0.050000  0.250000  0.050000     48.000000
  0.350000  0.350000  0.050000     24.000000
  0.450000  0.350000  0.050000     48.000000
 -0.450000  0.350000  0.050000     48.000000
 -0.350000  0.350000  0.050000     48.000000
 -0.250000  0.350000  0.050000     48.000000
 -0.150000  0.350000  0.050000     48.000000
 -0.050000  0.350000  0.050000     48.000000
  0.450000  0.450000  0.050000     24.000000
 -0.450000  0.450000  0.050000     48.000000
 -0.350000  0.450000  0.050000     48.000000
 -0.250000  0.450000  0.050000     48.000000
 -0.150000  0.450000  0.050000     48.000000
 -0.050000  0.450000  0.050000     48.000000
 -0.450000 -0.450000  0.050000     24.000000
 -0.350000 -0.450000  0.050000     48.000000
 -0.250000 -0.450000  0.050000     48.000000
 -0.150000 -0.450000  0.050000     48.000000
 -0.350000 -0.350000  0.050000     24.000000
 -0.250000 -0.350000  0.050000     48.000000
 -0.150000 -0.350000  0.050000     48.000000
 -0.250000 -0.250000  0.050000     24.000000
 -0.150000 -0.250000  0.050000     48.000000
 -0.150000 -0.150000  0.050000     24.000000
  0.150000  0.150000  0.150000      8.000000
  0.250000  0.150000  0.150000     24.000000
  0.350000  0.150000  0.150000     24.000000
  0.450000  0.150000  0.150000     24.000000
 -0.450000  0.150000  0.150000     24.000000
 -0.350000  0.150000  0.150000     24.000000
 -0.250000  0.150000  0.150000     24.000000
 -0.150000  0.150000  0.150000     24.000000
  0.250000  0.250000  0.150000     24.000000
  0.350000  0.250000  0.150000     48.000000
[...]
 -0.350000  0.450000  0.250000     48.000000
 -0.250000  0.450000  0.250000     48.000000
 -0.450000 -0.450000  0.250000     24.000000
 -0.350000 -0.450000  0.250000     48.000000
 -0.350000 -0.350000  0.250000     24.000000
  0.350000  0.350000  0.350000      8.000000
  0.450000  0.350000  0.350000     24.000000
 -0.450000  0.350000  0.350000     24.000000
 -0.350000  0.350000  0.350000     24.000000
  0.450000  0.450000  0.350000     24.000000
 -0.450000  0.450000  0.350000     48.000000
 -0.350000  0.450000  0.350000     48.000000
 -0.450000 -0.450000  0.350000     24.000000
  0.450000  0.450000  0.450000      8.000000
 -0.450000  0.450000  0.450000     24.000000

 Following cartesian coordinates:
            Coordinates               Weight
  0.012690  0.012690  0.012690      8.000000
 -0.012690  0.038071  0.038071     24.000000
 -0.038071  0.063452  0.063452     24.000000
 -0.063452  0.088832  0.088832     24.000000
 -0.088832  0.114213  0.114213     24.000000
  0.139594 -0.114213 -0.114213     24.000000
  0.114213 -0.088832 -0.088832     24.000000
  0.088832 -0.063452 -0.063452     24.000000
  0.063452 -0.038071 -0.038071     24.000000
  0.038071 -0.012690 -0.012690     24.000000
  0.012690  0.012690  0.063452     24.000000
 -0.012690  0.038071  0.088832     48.000000
 -0.038071  0.063452  0.114213     48.000000
 -0.063452  0.088832  0.139594     48.000000
  0.164975 -0.139594 -0.088832     48.000000
  0.139594 -0.114213 -0.063452     48.000000
  0.114213 -0.088832 -0.038071     48.000000
  0.088832 -0.063452 -0.012690     48.000000
  0.063452 -0.038071  0.012690     48.000000
  0.012690  0.012690  0.114213     24.000000
 -0.012690  0.038071  0.139594     48.000000
 -0.038071  0.063452  0.164975     48.000000
  0.190355 -0.164975 -0.063452     48.000000
  0.164975 -0.139594 -0.038071     48.000000
  0.139594 -0.114213 -0.012690     48.000000
  0.114213 -0.088832  0.012690     48.000000
  0.088832 -0.063452  0.038071     48.000000
  0.012690  0.012690  0.164975     24.000000
 -0.012690  0.038071  0.190355     48.000000
  0.215736 -0.190355 -0.038071     48.000000
  0.190355 -0.164975 -0.012690     48.000000
  0.164975 -0.139594  0.012690     48.000000
  0.139594 -0.114213  0.038071     48.000000
  0.114213 -0.088832  0.063452     48.000000
  0.012690  0.012690  0.215736     24.000000
  0.241117 -0.215736 -0.012690     48.000000
  0.215736 -0.190355  0.012690     48.000000
  0.190355 -0.164975  0.038071     48.000000
  0.164975 -0.139594  0.063452     48.000000
  0.139594 -0.114213  0.088832     48.000000
  0.012690  0.012690 -0.241117     24.000000
 -0.012690  0.038071 -0.215736     48.000000
 -0.038071  0.063452 -0.190355     48.000000
 -0.063452  0.088832 -0.164975     48.000000
  0.012690  0.012690 -0.190355     24.000000
 -0.012690  0.038071 -0.164975     48.000000
 -0.038071  0.063452 -0.139594     48.000000
  0.012690  0.012690 -0.139594     24.000000
 -0.012690  0.038071 -0.114213     48.000000
  0.012690  0.012690 -0.088832     24.000000
  0.038071  0.038071  0.038071      8.000000
  0.012690  0.063452  0.063452     24.000000
 -0.012690  0.088832  0.088832     24.000000
 -0.038071  0.114213  0.114213     24.000000
  0.190355 -0.114213 -0.114213     24.000000
  0.164975 -0.088832 -0.088832     24.000000
  0.139594 -0.063452 -0.063452     24.000000
  0.114213 -0.038071 -0.038071     24.000000
  0.038071  0.038071  0.088832     24.000000
  0.012690  0.063452  0.114213     48.000000
[...]
  0.266497 -0.139594 -0.038071     48.000000
  0.241117 -0.114213 -0.012690     48.000000
  0.063452  0.063452 -0.291878     24.000000
  0.038071  0.088832 -0.266497     48.000000
  0.063452  0.063452 -0.241117     24.000000
  0.088832  0.088832  0.088832      8.000000
  0.063452  0.114213  0.114213     24.000000
  0.291878 -0.114213 -0.114213     24.000000
  0.266497 -0.088832 -0.088832     24.000000
  0.088832  0.088832  0.139594     24.000000
  0.317259 -0.139594 -0.088832     48.000000
[...]
 k-point   4 :   0.3500 0.0500 0.0500  plane waves:     304
 k-point   5 :   0.4500 0.0500 0.0500  plane waves:     304
 k-point   6 :  -0.4500 0.0500 0.0500  plane waves:     303
 k-point   7 :  -0.3500 0.0500 0.0500  plane waves:     303
 k-point   8 :  -0.2500 0.0500 0.0500  plane waves:     303
 k-point   9 :  -0.1500 0.0500 0.0500  plane waves:     307
 k-point  10 :  -0.0500 0.0500 0.0500  plane waves:     311
 k-point  11 :   0.1500 0.1500 0.0500  plane waves:     307
 k-point  12 :   0.2500 0.1500 0.0500  plane waves:     305
 k-point  13 :   0.3500 0.1500 0.0500  plane waves:     302
 k-point  14 :   0.4500 0.1500 0.0500  plane waves:     304
 k-point  15 :  -0.4500 0.1500 0.0500  plane waves:     302
 k-point  16 :  -0.3500 0.1500 0.0500  plane waves:     304
 k-point  17 :  -0.2500 0.1500 0.0500  plane waves:     304
 k-point  18 :  -0.1500 0.1500 0.0500  plane waves:     306
 k-point  19 :  -0.0500 0.1500 0.0500  plane waves:     309
 k-point  20 :   0.2500 0.2500 0.0500  plane waves:     304
 k-point  21 :   0.3500 0.2500 0.0500  plane waves:     306
 k-point  22 :   0.4500 0.2500 0.0500  plane waves:     306
 k-point  23 :  -0.4500 0.2500 0.0500  plane waves:     303
 k-point  24 :  -0.3500 0.2500 0.0500  plane waves:     301
 k-point  25 :  -0.2500 0.2500 0.0500  plane waves:     306
 k-point  26 :  -0.1500 0.2500 0.0500  plane waves:     305
 k-point  27 :  -0.0500 0.2500 0.0500  plane waves:     306
 k-point  28 :   0.3500 0.3500 0.0500  plane waves:     309
 k-point  29 :   0.4500 0.3500 0.0500  plane waves:     309
 k-point  30 :  -0.4500 0.3500 0.0500  plane waves:     304
 k-point  31 :  -0.3500 0.3500 0.0500  plane waves:     298
 k-point  32 :  -0.2500 0.3500 0.0500  plane waves:     302
 k-point  33 :  -0.1500 0.3500 0.0500  plane waves:     305
 k-point  34 :  -0.0500 0.3500 0.0500  plane waves:     301
 k-point  35 :   0.4500 0.4500 0.0500  plane waves:     312
 k-point  36 :  -0.4500 0.4500 0.0500  plane waves:     306
 k-point  37 :  -0.3500 0.4500 0.0500  plane waves:     302
 k-point  38 :  -0.2500 0.4500 0.0500  plane waves:     300
 k-point  39 :  -0.1500 0.4500 0.0500  plane waves:     301
 k-point  40 :  -0.0500 0.4500 0.0500  plane waves:     304
 k-point  41 :  -0.4500-0.4500 0.0500  plane waves:     302
 k-point  42 :  -0.3500-0.4500 0.0500  plane waves:     309
 k-point  43 :  -0.2500-0.4500 0.0500  plane waves:     304
 k-point  44 :  -0.1500-0.4500 0.0500  plane waves:     305
 k-point  45 :  -0.3500-0.3500 0.0500  plane waves:     314
 k-point  46 :  -0.2500-0.3500 0.0500  plane waves:     310
 k-point  47 :  -0.1500-0.3500 0.0500  plane waves:     308
 k-point  48 :  -0.2500-0.2500 0.0500  plane waves:     308
 k-point  49 :  -0.1500-0.2500 0.0500  plane waves:     303
 k-point  50 :  -0.1500-0.1500 0.0500  plane waves:     303
 k-point  51 :   0.1500 0.1500 0.1500  plane waves:     310
 k-point  52 :   0.2500 0.1500 0.1500  plane waves:     310
 k-point  53 :   0.3500 0.1500 0.1500  plane waves:     305
 k-point  54 :   0.4500 0.1500 0.1500  plane waves:     302
 k-point  55 :  -0.4500 0.1500 0.1500  plane waves:     301
 k-point  56 :  -0.3500 0.1500 0.1500  plane waves:     306
 k-point  57 :  -0.2500 0.1500 0.1500  plane waves:     305
 k-point  58 :  -0.1500 0.1500 0.1500  plane waves:     306
 k-point  59 :   0.2500 0.2500 0.1500  plane waves:     306
 k-point  60 :   0.3500 0.2500 0.1500  plane waves:     305
[...]
 k-point  96 :  -0.3500 0.4500 0.2500  plane waves:     304
 k-point  97 :  -0.2500 0.4500 0.2500  plane waves:     301
 k-point  98 :  -0.4500-0.4500 0.2500  plane waves:     302
 k-point  99 :  -0.3500-0.4500 0.2500  plane waves:     299
 k-point 100 :  -0.3500-0.3500 0.2500  plane waves:     302
 k-point 101 :   0.3500 0.3500 0.3500  plane waves:     305
 k-point 102 :   0.4500 0.3500 0.3500  plane waves:     305
 k-point 103 :  -0.4500 0.3500 0.3500  plane waves:     301
 k-point 104 :  -0.3500 0.3500 0.3500  plane waves:     295
 k-point 105 :   0.4500 0.4500 0.3500  plane waves:     305
 k-point 106 :  -0.4500 0.4500 0.3500  plane waves:     303
 k-point 107 :  -0.3500 0.4500 0.3500  plane waves:     302
 k-point 108 :  -0.4500-0.4500 0.3500  plane waves:     303
 k-point 109 :   0.4500 0.4500 0.4500  plane waves:     308
 k-point 110 :  -0.4500 0.4500 0.4500  plane waves:     306

 maximum and minimum number of plane-waves per node :       316      295

 maximum number of plane-waves:       316
 maximum index in each direction:
   IXMAX=    5   IYMAX=    5   IZMAX=    4
   IXMIN=   -5   IYMIN=   -5   IZMIN=   -5

 serial   3D FFT for wavefunctions
 parallel 3D FFT for charge:
    minimum data exchange during FFTs selected (reduces bandwidth)

 Broyden mixing: mesh for mixing (old mesh)
   NGX =  9   NGY =  9   NGZ =  9
  (NGX  = 40   NGY  = 40   NGZ  = 40)
  gives a total of    729 points

 initial charge density was supplied:
 charge density of overlapping atoms calculated
 number of electron      16.0000000 magnetization
 keeping initial charge density in first step

 Maximum index for augmentation-charges          868 (set IRDMAX)

 First call to EWALD:  gamma=   0.714
 Maximum number of real-space cells 3x 3x 3
 Maximum number of reciprocal cells 3x 3x 3

--------------------------------------- Iteration      1(   1)  ---------------------------------------

 eigenvalue-minimisations  :  5976
 total energy-change (2. order) : 0.1634119E+02  (-0.1171113E+04)
 number of electron      16.0000000 magnetization
 augmentation part       16.0000000 magnetization

 Free energy of the ion-electron system (eV)
  alpha Z        PSCENC =       156.91311333
  Ewald energy   TEWEN  =     -2144.84590610
  -Hartree energ DENC   =      -397.82488157
  -exchange      EXHF   =         0.00000000
  -V(xc)+E(xc)   XCENC  =        63.81680431
  PAW double counting   =      2065.75261637    -2030.83594803
  entropy T*S    EENTRO =        -0.00049425
  eigenvalues    EBANDS =      -124.82912779
  atomic energy  EATOM  =      2428.19501064
  Solvation  Ediel_sol  =         0.00000000
  free energy    TOTEN  =        16.34118693 eV

  energy without entropy =       16.34168118  energy(sigma->0) =       16.34143405

[...]

 eigenvalue-minimisations  :  6888
 total energy-change (2. order) :-0.2273715E+02  (-0.2244321E+02)
 number of electron      16.0000000 magnetization
 augmentation part       16.0000000 magnetization

[...]

 Broyden mixing:
  rms(total) = 0.14937E+01    rms(broyden)= 0.14935E+01
  rms(prec ) = 0.20509E+01
  weight for this iteration     100.00

[...]

 eigenvalues of (default mixing * dielectric matrix)
  average eigenvalue GAMMA=   1.4493
  1.4493

[...]

 average (electrostatic) potential at core
  the test charge radii are     0.9952
  (the norm of the test charge is              1.0000)
       1 -88.9636

 E-fermi :  11.8133     XC(G=0): -13.9150     alpha+bet :-17.1560

 Fermi energy:        11.8133402319

 k-point     1 :       0.0500    0.0500    0.0500
  band No.  band energies     occupation
      1     -40.7101      2.00000
      2     -40.7011      2.00000
      3     -40.7011      2.00000
      4       1.7964      2.00000
      5       8.0336      2.00000
      6       8.1176      2.00000
      7       8.1176      2.00000
      8      10.1750      2.00000
      9      10.1750      2.00000
     10      26.5929      0.00000
     11      30.7752      0.00000
     12      31.4777      0.00000
     13      31.4777      0.00000
     14      37.2442      0.00000
     15      42.0647      0.00000
     16      42.8051      0.00000
     17      42.8051      0.00000
     18      46.0344      0.00000
     19      46.0344      0.00000
     20      46.9565      0.00000
     21      52.5059      0.00000
     22      52.7983      0.00000
     23      52.7983      0.00000
     24      59.9755      0.00000

[...]

 soft charge-density along one line, spin component           1
         0         1         2         3         4         5         6         7         8         9
 total charge-density along one line

------------------------ aborting loop because EDIFF is reached ----------------------------------------

 total charge

# of ion       s       p       d       tot
    1        0.343   6.084   7.066  13.493

  FORCE on cell =-STRESS in cart. coord.  units (eV):
  Direction    XX          YY          ZZ          XY          YZ          ZX
  Alpha Z   156.91311   156.91311   156.91311
  Ewald    -714.94866  -714.94866  -714.94866    -0.00000     0.00000     0.00000
  Hartree   126.17643   126.17643   126.17643     0.00000     0.00000     0.00000
  E(xc)     -85.53279   -85.53279   -85.53279     0.00000     0.00000     0.00000
  Local     125.02141   125.02141   125.02141     0.00000     0.00000     0.00000
  n-local   -29.94151   -27.25226   -32.68332     3.29948    -3.08923     0.17110
  augment    73.32761    73.32761    73.32761     0.00000     0.00000     0.00000
  Kinetic   348.50424   353.76566   345.77547     4.49238    -3.82478    -0.55441
  Fock        0.00000     0.00000     0.00000     0.00000     0.00000     0.00000
  Total       0.34654     0.34654     0.34654    -0.00000    -0.00000    -0.00000
  in kB      36.31114    36.31114    36.31114    -0.00000    -0.00000    -0.00000

 VOLUME and BASIS-vectors are now :
  energy-cutoff  :      425.00
  volume of cell :       15.29
      direct lattice vectors                 reciprocal lattice vectors
     0.000000000  1.970000000  1.970000000    -0.253807107  0.253807107  0.253807107
     1.970000000  0.000000000  1.970000000     0.253807107 -0.253807107  0.253807107
     1.970000000  1.970000000  0.000000000     0.253807107  0.253807107 -0.253807107

[...]

 FORCES acting on ions
    electron-ion (+dipol)            ewald-force                    non-local-force                 convergence-correction
   -.680E-14 -.595E-14 0.498E-15   -.456E-14 -.897E-14 -.116E-13   0.129E-25 0.129E-25 0.000E+00   0.171E-14 -.814E-13 -.381E-13
   -.680E-14 -.595E-14 0.498E-15   -.456E-14 -.897E-14 -.116E-13   0.129E-25 0.129E-25 0.000E+00   0.171E-14 -.814E-13 -.381E-13

 POSITION                                       TOTAL-FORCE (eV/Angst)
      0.00000      0.00000      0.00000         0.000000      0.000000      0.000000
    total drift:                               -0.000000     -0.000000     -0.000000

  FREE ENERGIE OF THE ION-ELECTRON SYSTEM (eV)
  free  energy   TOTEN  =        -6.07513810 eV

  energy  without entropy=       -6.07268576  energy(sigma->0) =       -6.07391193

[...]

 d Force = 0.0000000E+00[ 0.000E+00, 0.000E+00]  d Energy =-0.1399685E-01 0.140E-01
 d Force = 0.0000000E+00[ 0.000E+00, 0.000E+00]  d Ewald  =-0.3526831E+02 0.353E+02

 Steepest descent step on ions:
 trial-energy change:    0.013997  1 .order    0.013186   -0.017381    0.043753
  (g-gl).g = 0.174E-01      g.g   = 0.174E-01  gl.gl    = 0.000E+00
 g(Force)  = 0.000E+00   g(Stress)= 0.174E-01 ortho     = 0.000E+00
 gamma     =   0.00000
 trial     =   1.00000
 opt step  =   0.26867  (harmonic =   0.28431) maximal distance =0.00000000
 next E    =    -6.077457   (d E  =  -0.00232)

[...]

 eigenvalue-minimisations  :  7584
 total energy-change (2. order) : 0.5701097E-02  (-0.5884876E-02)
 number of electron      16.0000007 magnetization
 augmentation part        4.1087837 magnetization

[...]

 Broyden mixing:
  rms(total) = 0.45619E-04    rms(broyden)= 0.45414E-04
  rms(prec ) = 0.13073E-03
  weight for this iteration     100.00

 eigenvalues of (default mixing * dielectric matrix)
  average eigenvalue GAMMA=   1.8074
  1.0000  1.1819  2.5269  2.5269  1.8015

[...]

--------------------------------------- Iteration      3(   7)  ---------------------------------------

 eigenvalue-minimisations  :  3528
 total energy-change (2. order) :-0.8265306E-07  (-0.8154239E-09)
 number of electron      16.0000007 magnetization
 augmentation part        4.1125339 magnetization

 Free energy of the ion-electron system (eV)
  alpha Z        PSCENC =       154.81755146
  Ewald energy   TEWEN  =     -2135.25500241
  -Hartree energ DENC   =      -382.90569242
  -exchange      EXHF   =         0.00000000
  -V(xc)+E(xc)   XCENC  =        62.89291251
  PAW double counting   =      2332.20077017    -2299.86671420
  entropy T*S    EENTRO =        -0.00250446
  eigenvalues    EBANDS =      -166.15374685
  atomic energy  EATOM  =      2428.19501064
  Solvation  Ediel_sol  =         0.00000000
  free energy    TOTEN  =        -6.07741555 eV

  energy without entropy =       -6.07491109  energy(sigma->0) =       -6.07616332

 average (electrostatic) potential at core
  the test charge radii are     0.9952
  (the norm of the test charge is              1.0000)
       1 -89.1790

 E-fermi :  11.5517     XC(G=0): -13.8281     alpha+bet :-16.9269

 Fermi energy:        11.5516558895

[...]

 k-point   110 :      -0.4500    0.4500    0.4500
  band No.  band energies     occupation
      1     -41.3283      2.00000
      2     -41.0098      2.00000
      3     -40.9867      2.00000
      4       4.7742      2.00000
      5       7.6129      2.00000
      6       8.0881      2.00000
      7       9.6728      2.00000
      8      11.4455      1.99733
      9      13.3233      0.00000
     10      17.1509      0.00000
     11      26.2647      0.00000
     12      29.1390      0.00000
     13      30.1532      0.00000
     14      38.7912      0.00000
     15      39.1590      0.00000
     16      41.5566      0.00000
     17      45.7845      0.00000
     18      46.5751      0.00000
     19      46.7559      0.00000
     20      52.3151      0.00000
     21      52.3552      0.00000
     22      52.9755      0.00000
     23      56.8977      0.00000
     24      57.4402      0.00000

 soft charge-density along one line, spin component           1
         0         1         2         3         4         5         6         7         8         9
 total charge-density along one line

------------------------ aborting loop because EDIFF is reached ----------------------------------------

[...]

  FORCE on cell =-STRESS in cart. coord.  units (eV):
  Direction    XX          YY          ZZ          XY          YZ          ZX
  Alpha Z   154.81755   154.81755   154.81755
  Ewald    -711.75169  -711.75169  -711.75169     0.00000    -0.00000    -0.00000
  Hartree   127.63496   127.63496   127.63496     0.00000     0.00000     0.00000
  E(xc)     -85.47586   -85.47586   -85.47586     0.00000     0.00000     0.00000
  Local     122.53176   122.53176   122.53176     0.00000     0.00000     0.00000
  n-local   -30.22352   -27.58509   -32.96837     3.28067    -3.06710     0.17349
  augment    73.32565    73.32565    73.32565     0.00001     0.00001     0.00001
  Kinetic   348.35410   353.52306   345.64161     4.44114    -3.76005    -0.54585
  Fock        0.00000     0.00000     0.00000     0.00000     0.00000     0.00000
  Total      -0.00369    -0.00369    -0.00369     0.00000     0.00000    -0.00000
  in kB      -0.38174    -0.38174    -0.38174     0.00000     0.00000    -0.00000

 VOLUME and BASIS-vectors are now :
  energy-cutoff  :      425.00
  volume of cell :       15.50
      direct lattice vectors                 reciprocal lattice vectors
    -0.000000000  1.978848629  1.978848629    -0.252672181  0.252672181  0.252672181
     1.978848629  0.000000000  1.978848629     0.252672181 -0.252672181  0.252672181
     1.978848629  1.978848629 -0.000000000     0.252672181  0.252672181 -0.252672181

  length of vectors
     2.798514570  2.798514570  2.798514570     0.437641056  0.437641056  0.437641056

 FORCES acting on ions
    electron-ion (+dipol)            ewald-force                    non-local-force                 convergence-correction
   -.509E-14 -.526E-14 -.124E-15   -.779E-15 0.414E-14 0.264E-14   0.000E+00 -.969E-26 -.644E-26   0.117E-13 -.108E-12 -.460E-13
   -.509E-14 -.526E-14 -.124E-15   -.779E-15 0.414E-14 0.264E-14   0.000E+00 -.969E-26 -.644E-26   0.117E-13 -.108E-12 -.460E-13

 POSITION                                       TOTAL-FORCE (eV/Angst)
      0.00000      0.00000      0.00000         0.000000     -0.000000      0.000000
    total drift:                                0.000000     -0.000000     -0.000000

  FREE ENERGIE OF THE ION-ELECTRON SYSTEM (eV)
  free  energy   TOTEN  =        -6.07741555 eV

  energy  without entropy=       -6.07491109  energy(sigma->0) =       -6.07616332

 d Force = 0.0000000E+00[ 0.000E+00, 0.000E+00]  d Energy = 0.1627429E-01-0.163E-01
 d Force = 0.0000000E+00[ 0.000E+00, 0.000E+00]  d Ewald  = 0.2567741E+02-0.257E+02

 reached required accuracy - stopping structural energy minimisation
 writing wavefunctions

 total charge

# of ion       s       p       d       tot
    1        0.339   6.080   7.063  13.482