 vasp.6.3.2 27Jun22 (build Aug 12 2022 00:53:59) complex

 executed on               tv2STD date 2024.11.30  15:58:28

 INCAR:
   SYSTEM = Pt-hcp
   NWRITE = 2    write-flag
   ISTART = 0    job   : 0-new, 1-cont, 2-samecut
   ICHARG = 2    charge: 0-wave, 1-file, 2-atom, >10-const
   INIWAV = 1    electr: 0-lowe 1-rand  2-diag
   ENCUT = 500     energy cutoff in eV
   PREC = Accurate      normal | accurate
   ADDGRID = .FALSE.  (use fine grid)
   NELM = 100     number of ELM steps
   EDIFF = 1E-06    energy stopping-criterion for ELM
   LREAL = .FALSE.      real-space projection (.FALSE., .TRUE., On, Auto)
   ALGO = Normal     Normal, Fast, Very_Fast
   LWAVE = .FALSE.
   LCHARG = .FALSE.
   NSW = 0       max number of geometry steps
   IBRION = -1     ionic relax: 0-MD, 1-quasi-Newton, 2-CG, 3-Damped MD
   EDIFFG = -0.02  force (eV/A) stopping-criterion for geometry steps
   ISIF = 2     (1:force\=y stress\=trace only ions\=y shape\=n volume\=n)
   ISYM = 1     (1-use symmetry, 0-no symmetry)
   ISMEAR = 0     (-1-Fermi, 1-Methfessel/Paxton)
   SIGMA = 0.05  broadening in eV

 POTCAR:    PAW_PBE Pt_pv 12Dec2005
 POTCAR:    PAW_PBE Pt_pv 12Dec2005
   VRHFIN =Pt: 5ps1d9

   TITEL  = PAW_PBE Pt_pv 12Dec2005
   POMASS =  195.080; ZVAL   =   16.000    mass and valenz
   ENMAX  =  294.607; ENMIN  =  220.955 eV

  PAW_PBE Pt_pv 12Dec2005               :

 POSCAR: Pt
  positions in cartesian coordinates
 exchange correlation table for  LEXCH =        8
   RHO(1)=    0.500       N(1)  =     2000
   RHO(2)=  100.500       N(2)  =     4000

 ion  position               nearest neighbor table
   1  0.000  0.000  0.000-
   2  0.333  0.667  0.500-

  LATTYP: Found a hexagonal cell.
 ALAT       =     2.7600000000
 C/A-ratio  =     1.7355072464

  Lattice vectors:

 A1 = (   2.7600000000,   0.0000000000,   0.0000000000)
 A2 = (  -1.3800000000,   2.3902301144,   0.0000000000)
 A3 = (   0.0000000000,   0.0000000000,   4.7900000000)

Analysis of symmetry for initial positions (statically):
 Subroutine PRICEL returns:
 Original cell was already a primitive cell.

 Routine SETGRP: Setting up the symmetry group for a
 hexagonal supercell.

 Subroutine GETGRP returns: Found 24 space group operations
 (whereof 12 operations were pure point group operations)
 out of a pool of 24 trial point group operations.

The static configuration has the point symmetry D_3h.
 The point group associated with its full space group is D_6h.

Analysis of symmetry for dynamics (positions and initial velocities):
 Subroutine PRICEL returns:
 Original cell was already a primitive cell.

 Routine SETGRP: Setting up the symmetry group for a
 hexagonal supercell.

 Subroutine GETGRP returns: Found 24 space group operations
 (whereof 12 operations were pure point group operations)
 out of a pool of 24 trial point group operations.

The dynamic configuration has the point symmetry D_3h.
 The point group associated with its full space group is D_6h.

 Subroutine INISYM returns: Found 24 space group operations
 (whereof 12 operations are pure point group operations),
 and found     1 'primitive' translations

                                     Primitive cell

  volume of cell :      31.5998

  direct lattice vectors                    reciprocal lattice vectors
     2.760000000  0.000000000  0.000000000     0.362318841  0.209184880  0.000000000
    -1.380000000  2.390230114  0.000000000     0.000000000  0.418369760  0.000000000
     0.000000000  0.000000000  4.790000000     0.000000000  0.000000000  0.208768267

  length of vectors
     2.760000000  2.760000000  4.790000000     0.418369760  0.418369760  0.208768267

  position of ions in fractional coordinates (direct lattice)
     0.000000000  0.000000000  0.000000000
     0.333333333  0.666666667  0.500000000

  ion indices of the primitive-cell ions
   primitive index   ion index
                 1           1
                 2           2

 KPOINTS: Automatic mesh

Automatic generation of k-mesh.
 Grid dimensions read from file:
 generate k-points for:   10   10    8

 Generating k-lattice:

  Cartesian coordinates                     Fractional coordinates (reciprocal lattice)
     0.036231884  0.020918488  0.000000000     0.100000000  0.000000000  0.000000000
     0.000000000  0.041836976  0.000000000     0.000000000  0.100000000  0.000000000
     0.000000000  0.000000000  0.026096033     0.000000000  0.000000000  0.125000000

  Length of vectors
     0.041836976  0.041836976  0.026096033

  Shift w.r.t. Gamma in fractional coordinates (k-lattice)
     0.000000000  0.000000000  0.000000000

 Subroutine IBZKPT returns following result:

 Found     70 irreducible k-points:

 Following reciprocal coordinates:
            Coordinates               Weight
  0.000000  0.000000  0.000000      1.000000
  0.100000 -0.000000  0.000000      6.000000
  0.200000 -0.000000  0.000000      6.000000
  0.300000  0.000000  0.000000      6.000000
  0.400000 -0.000000  0.000000      6.000000
  0.500000 -0.000000  0.000000      3.000000
  0.100000  0.100000  0.000000      6.000000
  0.200000  0.100000  0.000000     12.000000
  0.300000  0.100000  0.000000     12.000000
  0.400000  0.100000  0.000000     12.000000
  0.200000  0.200000  0.000000      6.000000
  0.300000  0.200000  0.000000     12.000000
  0.400000  0.200000  0.000000      6.000000
  0.300000  0.300000  0.000000      6.000000
  0.000000  0.000000  0.125000      2.000000
  0.100000 -0.000000  0.125000     12.000000
  0.200000 -0.000000  0.125000     12.000000
  0.300000  0.000000  0.125000     12.000000
  0.400000 -0.000000  0.125000     12.000000
  0.500000 -0.000000  0.125000      6.000000
  0.100000  0.100000  0.125000     12.000000
  0.200000  0.100000  0.125000     24.000000
  0.300000  0.100000  0.125000     24.000000
  0.400000  0.100000  0.125000     24.000000
  0.200000  0.200000  0.125000     12.000000
  0.300000  0.200000  0.125000     24.000000
  0.400000  0.200000  0.125000     12.000000
  0.300000  0.300000  0.125000     12.000000
  0.000000  0.000000  0.250000      2.000000
  0.100000 -0.000000  0.250000     12.000000
  0.200000 -0.000000  0.250000     12.000000
  0.300000  0.000000  0.250000     12.000000
  0.400000 -0.000000  0.250000     12.000000
  0.500000 -0.000000  0.250000      6.000000
  0.100000  0.100000  0.250000     12.000000
  0.200000  0.100000  0.250000     24.000000
  0.300000  0.100000  0.250000     24.000000
  0.400000  0.100000  0.250000     24.000000
  0.200000  0.200000  0.250000     12.000000
  0.300000  0.200000  0.250000     24.000000
  0.400000  0.200000  0.250000     12.000000
  0.300000  0.300000  0.250000     12.000000
  0.000000  0.000000  0.375000      2.000000
  0.100000 -0.000000  0.375000     12.000000
  0.200000 -0.000000  0.375000     12.000000
  0.300000  0.000000  0.375000     12.000000
  0.400000 -0.000000  0.375000     12.000000
  0.500000 -0.000000  0.375000      6.000000
  0.100000  0.100000  0.375000     12.000000
  0.200000  0.100000  0.375000     24.000000
  0.300000  0.100000  0.375000     24.000000
  0.400000  0.100000  0.375000     24.000000
  0.200000  0.200000  0.375000     12.000000
  0.300000  0.200000  0.375000     24.000000
  0.400000  0.200000  0.375000     12.000000
  0.300000  0.300000  0.375000     12.000000
  0.000000  0.000000  0.500000      1.000000
  0.100000 -0.000000  0.500000      6.000000
  0.200000 -0.000000  0.500000      6.000000
  0.300000  0.000000  0.500000      6.000000
  0.400000 -0.000000  0.500000      6.000000
  0.500000 -0.000000  0.500000      3.000000
  0.100000  0.100000  0.500000      6.000000
  0.200000  0.100000  0.500000     12.000000
  0.300000  0.100000  0.500000     12.000000
  0.400000  0.100000  0.500000     12.000000
  0.200000  0.200000  0.500000      6.000000
  0.300000  0.200000  0.500000     12.000000
  0.400000  0.200000  0.500000      6.000000
  0.300000  0.300000  0.500000      6.000000

 Following cartesian coordinates:
            Coordinates               Weight
  0.000000  0.000000  0.000000      1.000000
  0.036232  0.020918  0.000000      6.000000
  0.072464  0.041837  0.000000      6.000000
  0.108696  0.062755  0.000000      6.000000
  0.144928  0.083674  0.000000      6.000000
  0.181159  0.104592  0.000000      3.000000
  0.036232  0.062755  0.000000      6.000000
  0.072464  0.083674  0.000000     12.000000
  0.108696  0.104592  0.000000     12.000000
  0.144928  0.125511  0.000000     12.000000
  0.072464  0.125511  0.000000      6.000000
  0.108696  0.146429  0.000000     12.000000
  0.144928  0.167348  0.000000      6.000000
  0.108696  0.188266  0.000000      6.000000
  0.000000  0.000000  0.026096      2.000000
  0.036232  0.020918  0.026096     12.000000
  0.072464  0.041837  0.026096     12.000000
  0.108696  0.062755  0.026096     12.000000
  0.144928  0.083674  0.026096     12.000000
  0.181159  0.104592  0.026096      6.000000
  0.036232  0.062755  0.026096     12.000000
  0.072464  0.083674  0.026096     24.000000
  0.108696  0.104592  0.026096     24.000000
  0.144928  0.125511  0.026096     24.000000
  0.072464  0.125511  0.026096     12.000000
  0.108696  0.146429  0.026096     24.000000
  0.144928  0.167348  0.026096     12.000000
  0.108696  0.188266  0.026096     12.000000
  0.000000  0.000000  0.052192      2.000000
  0.036232  0.020918  0.052192     12.000000
  0.072464  0.041837  0.052192     12.000000
  0.108696  0.062755  0.052192     12.000000
  0.144928  0.083674  0.052192     12.000000
  0.181159  0.104592  0.052192      6.000000
  0.036232  0.062755  0.052192     12.000000
  0.072464  0.083674  0.052192     24.000000
  0.108696  0.104592  0.052192     24.000000
  0.144928  0.125511  0.052192     24.000000
  0.072464  0.125511  0.052192     12.000000
  0.108696  0.146429  0.052192     24.000000
  0.144928  0.167348  0.052192     12.000000
  0.108696  0.188266  0.052192     12.000000
  0.000000  0.000000  0.078288      2.000000
  0.036232  0.020918  0.078288     12.000000
  0.072464  0.041837  0.078288     12.000000
  0.108696  0.062755  0.078288     12.000000
  0.144928  0.083674  0.078288     12.000000
  0.181159  0.104592  0.078288      6.000000
  0.036232  0.062755  0.078288     12.000000
  0.072464  0.083674  0.078288     24.000000
  0.108696  0.104592  0.078288     24.000000
  0.144928  0.125511  0.078288     24.000000
  0.072464  0.125511  0.078288     12.000000
  0.108696  0.146429  0.078288     24.000000
  0.144928  0.167348  0.078288     12.000000
  0.108696  0.188266  0.078288     12.000000
  0.000000  0.000000  0.104384      1.000000
  0.036232  0.020918  0.104384      6.000000
  0.072464  0.041837  0.104384      6.000000
  0.108696  0.062755  0.104384      6.000000
  0.144928  0.083674  0.104384      6.000000
  0.181159  0.104592  0.104384      3.000000
  0.036232  0.062755  0.104384      6.000000
  0.072464  0.083674  0.104384     12.000000
  0.108696  0.104592  0.104384     12.000000
  0.144928  0.125511  0.104384     12.000000
  0.072464  0.125511  0.104384      6.000000
  0.108696  0.146429  0.104384     12.000000
  0.144928  0.167348  0.104384      6.000000
  0.108696  0.188266  0.104384      6.000000

 SYSTEM =  Pt-hcp
 POSCAR =  Pt

 Startparameter for this run:
[...]

 k-points in reciprocal lattice and weights: Automatic mesh
   0.00000000  0.00000000  0.00000000       0.001
   0.10000000 -0.00000000  0.00000000       0.007
   0.20000000 -0.00000000  0.00000000       0.007
   0.30000000  0.00000000  0.00000000       0.007
   0.40000000 -0.00000000  0.00000000       0.007
   0.50000000 -0.00000000  0.00000000       0.004
   0.10000000  0.10000000  0.00000000       0.007
   0.20000000  0.10000000  0.00000000       0.015
   0.30000000  0.10000000  0.00000000       0.015
   0.40000000  0.10000000  0.00000000       0.015
   0.20000000  0.20000000  0.00000000       0.007
   0.30000000  0.20000000  0.00000000       0.015
   0.40000000  0.20000000  0.00000000       0.007
   0.30000000  0.30000000  0.00000000       0.007
   0.00000000  0.00000000  0.12500000       0.003
   0.10000000 -0.00000000  0.12500000       0.015
   0.20000000 -0.00000000  0.12500000       0.015
   0.30000000  0.00000000  0.12500000       0.015
   0.40000000 -0.00000000  0.12500000       0.015
   0.50000000 -0.00000000  0.12500000       0.007
   0.10000000  0.10000000  0.12500000       0.015
   0.20000000  0.10000000  0.12500000       0.030
   0.30000000  0.10000000  0.12500000       0.030
   0.40000000  0.10000000  0.12500000       0.030
   0.20000000  0.20000000  0.12500000       0.015
   0.30000000  0.20000000  0.12500000       0.030
   0.40000000  0.20000000  0.12500000       0.015
   0.30000000  0.30000000  0.12500000       0.015
   0.00000000  0.00000000  0.25000000       0.003
   0.10000000 -0.00000000  0.25000000       0.015
   0.20000000 -0.00000000  0.25000000       0.015
   0.30000000  0.00000000  0.25000000       0.015
   0.40000000 -0.00000000  0.25000000       0.015
   0.50000000 -0.00000000  0.25000000       0.007
   0.10000000  0.10000000  0.25000000       0.015
   0.20000000  0.10000000  0.25000000       0.030
   0.30000000  0.10000000  0.25000000       0.030
   0.40000000  0.10000000  0.25000000       0.030
   0.20000000  0.20000000  0.25000000       0.015
   0.30000000  0.20000000  0.25000000       0.030
   0.40000000  0.20000000  0.25000000       0.015
   0.30000000  0.30000000  0.25000000       0.015
   0.00000000  0.00000000  0.37500000       0.003
   0.10000000 -0.00000000  0.37500000       0.015
   0.20000000 -0.00000000  0.37500000       0.015
   0.30000000  0.00000000  0.37500000       0.015
   0.40000000 -0.00000000  0.37500000       0.015
   0.50000000 -0.00000000  0.37500000       0.007
   0.10000000  0.10000000  0.37500000       0.015
   0.20000000  0.10000000  0.37500000       0.030
   0.30000000  0.10000000  0.37500000       0.030
   0.40000000  0.10000000  0.37500000       0.030
   0.20000000  0.20000000  0.37500000       0.015
   0.30000000  0.20000000  0.37500000       0.030
   0.40000000  0.20000000  0.37500000       0.015
   0.30000000  0.30000000  0.37500000       0.015
   0.00000000  0.00000000  0.50000000       0.001
   0.10000000 -0.00000000  0.50000000       0.007
   0.20000000 -0.00000000  0.50000000       0.007
   0.30000000  0.00000000  0.50000000       0.007
   0.40000000 -0.00000000  0.50000000       0.007
   0.50000000 -0.00000000  0.50000000       0.004
   0.10000000  0.10000000  0.50000000       0.007
   0.20000000  0.10000000  0.50000000       0.015
   0.30000000  0.10000000  0.50000000       0.015
   0.40000000  0.10000000  0.50000000       0.015
   0.20000000  0.20000000  0.50000000       0.007
   0.30000000  0.20000000  0.50000000       0.015
   0.40000000  0.20000000  0.50000000       0.007
   0.30000000  0.30000000  0.50000000       0.007

 position of ions in fractional coordinates (direct lattice)
   0.00000000  0.00000000  0.00000000
   0.33333333  0.66666667  0.50000000

 position of ions in cartesian coordinates  (Angst):
   0.00000000  0.00000000  0.00000000
   0.00000000  1.59348674  2.39500000

 k-point   1 :   0.0000 0.0000 0.0000  plane waves:     761
 k-point   2 :   0.1000-0.0000 0.0000  plane waves:     785
 k-point   3 :   0.2000-0.0000 0.0000  plane waves:     789
 k-point   4 :   0.3000 0.0000 0.0000  plane waves:     799
 k-point   5 :   0.4000-0.0000 0.0000  plane waves:     804
 k-point   6 :   0.5000-0.0000 0.0000  plane waves:     810
 k-point   7 :   0.1000 0.1000 0.0000  plane waves:     799
 k-point   8 :   0.2000 0.1000 0.0000  plane waves:     796
 k-point   9 :   0.3000 0.1000 0.0000  plane waves:     800
 k-point  10 :   0.4000 0.1000 0.0000  plane waves:     805
 k-point  11 :   0.2000 0.2000 0.0000  plane waves:     813
 k-point  12 :   0.3000 0.2000 0.0000  plane waves:     808
 k-point  13 :   0.4000 0.2000 0.0000  plane waves:     815
 k-point  14 :   0.3000 0.3000 0.0000  plane waves:     825
 k-point  15 :   0.0000 0.0000 0.1250  plane waves:     779
 k-point  16 :   0.1000-0.0000 0.1250  plane waves:     783
 k-point  17 :   0.2000-0.0000 0.1250  plane waves:     793
 k-point  18 :   0.3000 0.0000 0.1250  plane waves:     798
 k-point  19 :   0.4000-0.0000 0.1250  plane waves:     813
 k-point  20 :   0.5000-0.0000 0.1250  plane waves:     810
 k-point  21 :   0.1000 0.1000 0.1250  plane waves:     789
 k-point  22 :   0.2000 0.1000 0.1250  plane waves:     801
 k-point  23 :   0.3000 0.1000 0.1250  plane waves:     801
 k-point  24 :   0.4000 0.1000 0.1250  plane waves:     809
 k-point  25 :   0.2000 0.2000 0.1250  plane waves:     800
 k-point  26 :   0.3000 0.2000 0.1250  plane waves:     808
 k-point  27 :   0.4000 0.2000 0.1250  plane waves:     809
 k-point  28 :   0.3000 0.3000 0.1250  plane waves:     815
 k-point  29 :   0.0000 0.0000 0.2500  plane waves:     785
 k-point  30 :   0.1000-0.0000 0.2500  plane waves:     787
 k-point  31 :   0.2000-0.0000 0.2500  plane waves:     795
 k-point  32 :   0.3000 0.0000 0.2500  plane waves:     801
 k-point  33 :   0.4000-0.0000 0.2500  plane waves:     805
 k-point  34 :   0.5000-0.0000 0.2500  plane waves:     804
 k-point  35 :   0.1000 0.1000 0.2500  plane waves:     796
 k-point  36 :   0.2000 0.1000 0.2500  plane waves:     800
 k-point  37 :   0.3000 0.1000 0.2500  plane waves:     809
 k-point  38 :   0.4000 0.1000 0.2500  plane waves:     802
 k-point  39 :   0.2000 0.2000 0.2500  plane waves:     805
 k-point  40 :   0.3000 0.2000 0.2500  plane waves:     808
 k-point  41 :   0.4000 0.2000 0.2500  plane waves:     805
 k-point  42 :   0.3000 0.3000 0.2500  plane waves:     807
 k-point  43 :   0.0000 0.0000 0.3750  plane waves:     774
 k-point  44 :   0.1000-0.0000 0.3750  plane waves:     795
 k-point  45 :   0.2000-0.0000 0.3750  plane waves:     797
 k-point  46 :   0.3000 0.0000 0.3750  plane waves:     798
 k-point  47 :   0.4000-0.0000 0.3750  plane waves:     799
 k-point  48 :   0.5000-0.0000 0.3750  plane waves:     802
 k-point  49 :   0.1000 0.1000 0.3750  plane waves:     796
 k-point  50 :   0.2000 0.1000 0.3750  plane waves:     798
 k-point  51 :   0.3000 0.1000 0.3750  plane waves:     805
 k-point  52 :   0.4000 0.1000 0.3750  plane waves:     801
 k-point  53 :   0.2000 0.2000 0.3750  plane waves:     810
 k-point  54 :   0.3000 0.2000 0.3750  plane waves:     804
 k-point  55 :   0.4000 0.2000 0.3750  plane waves:     813
 k-point  56 :   0.3000 0.3000 0.3750  plane waves:     804
 k-point  57 :   0.0000 0.0000 0.5000  plane waves:     774
 k-point  58 :   0.1000-0.0000 0.5000  plane waves:     800
 k-point  59 :   0.2000-0.0000 0.5000  plane waves:     794
 k-point  60 :   0.3000 0.0000 0.5000  plane waves:     808
 k-point  61 :   0.4000-0.0000 0.5000  plane waves:     792
 k-point  62 :   0.5000-0.0000 0.5000  plane waves:     808
 k-point  63 :   0.1000 0.1000 0.5000  plane waves:     800
 k-point  64 :   0.2000 0.1000 0.5000  plane waves:     802
 k-point  65 :   0.3000 0.1000 0.5000  plane waves:     802
 k-point  66 :   0.4000 0.1000 0.5000  plane waves:     808
 k-point  67 :   0.2000 0.2000 0.5000  plane waves:     810
 k-point  68 :   0.3000 0.2000 0.5000  plane waves:     806
 k-point  69 :   0.4000 0.2000 0.5000  plane waves:     808
 k-point  70 :   0.3000 0.3000 0.5000  plane waves:     796

 maximum and minimum number of plane-waves per node :       825      761

 maximum number of plane-waves:       825
 maximum index in each direction:
   IXMAX=    4   IYMAX=    5   IZMAX=    8
   IXMIN=   -5   IYMIN=   -5   IZMIN=   -9

 serial   3D FFT for wavefunctions
 parallel 3D FFT for charge:
    minimum data exchange during FFTs selected (reduces bandwidth)

 Broyden mixing: mesh for mixing (old mesh)
   NGX =  9   NGY =  9   NGZ = 17
  (NGX  = 40   NGY  = 40   NGZ  = 72)
  gives a total of   1377 points

 initial charge density was supplied:
 charge density of overlapping atoms calculated
 number of electron      32.0000000 magnetization
 keeping initial charge density in first step

 Maximum index for augmentation-charges          730 (set IRDMAX)

 First call to EWALD:  gamma=   0.561
 Maximum number of real-space cells 3x 3x 2
 Maximum number of reciprocal cells 2x 2x 4

--------------------------------------- Iteration      1(   1)  ---------------------------------------

 eigenvalue-minimisations  :  3360
 total energy-change (2. order) : 0.1607080E+03  (-0.2428382E+04)
 number of electron      32.0000000 magnetization
 augmentation part       32.0000000 magnetization

 Free energy of the ion-electron system (eV)
  alpha Z        PSCENC =       303.71314961
  Ewald energy   TEWEN  =     -4240.69024974
  -Hartree energ DENC   =      -819.48907223
  -exchange      EXHF   =         0.00000000
  -V(xc)+E(xc)   XCENC  =       127.32804754
  PAW double counting   =      4131.50523274    -4061.67189606
  entropy T*S    EENTRO =        -0.00213463
  eigenvalues    EBANDS =      -136.45484483
  atomic energy  EATOM  =      4856.46979851
  Solvation  Ediel_sol  =         0.00000000
  free energy    TOTEN  =       160.70803091 eV

  energy without entropy =      160.71016554  energy(sigma->0) =      160.70909823

[...]

 eigenvalue-minimisations  :  3456
 total energy-change (2. order) :-0.1719139E+03  (-0.1710487E+03)
 number of electron      32.0000000 magnetization
 augmentation part       32.0000000 magnetization

[...]

 Broyden mixing:
  rms(total) = 0.19680E+01    rms(broyden)= 0.19678E+01
  rms(prec ) = 0.21866E+01
  weight for this iteration     100.00

[...]

 eigenvalues of (default mixing * dielectric matrix)
  average eigenvalue GAMMA=   1.4068
  1.4068

[...]

 eigenvalue-minimisations  :  3936
 total energy-change (2. order) :-0.1447311E-04  (-0.1129362E-05)
 number of electron      31.9999996 magnetization
 augmentation part        8.2306173 magnetization

 Broyden mixing:
  rms(total) = 0.11803E-02    rms(broyden)= 0.11799E-02
  rms(prec ) = 0.13370E-02
  weight for this iteration     100.00

 eigenvalues of (default mixing * dielectric matrix)
  average eigenvalue GAMMA=   1.7208
  2.6524  2.2715  0.9885  1.1943  1.4975

[...]

--------------------------------------- Iteration      1(  11)  ---------------------------------------

 eigenvalue-minimisations  :  3840
 total energy-change (2. order) : 0.5090351E-06  (-0.1189118E-06)
 number of electron      31.9999996 magnetization
 augmentation part        8.2306173 magnetization

 Free energy of the ion-electron system (eV)
  alpha Z        PSCENC =       303.71314961
  Ewald energy   TEWEN  =     -4240.69024974
  -Hartree energ DENC   =      -780.81398887
  -exchange      EXHF   =         0.00000000
  -V(xc)+E(xc)   XCENC  =       125.63004017
  PAW double counting   =      4626.95601823    -4562.07299394
  entropy T*S    EENTRO =        -0.00472142
  eigenvalues    EBANDS =      -341.22689975
  atomic energy  EATOM  =      4856.46979851
  Solvation  Ediel_sol  =         0.00000000
  free energy    TOTEN  =       -12.03984720 eV

  energy without entropy =      -12.03512578  energy(sigma->0) =      -12.03748649

 average (electrostatic) potential at core
  the test charge radii are     0.9952
  (the norm of the test charge is              1.0000)
       1 -89.4891       2 -89.4891

 E-fermi :  11.1225     XC(G=0): -13.6991     alpha+bet :-16.6031

 Fermi energy:        11.1225498388

 k-point     1 :       0.0000    0.0000    0.0000
  band No.  band energies     occupation
      1     -41.4761      2.00000
      2     -41.3079      2.00000
      3     -41.3079      2.00000
      4     -41.2679      2.00000
      5     -41.2679      2.00000
      6     -41.1481      2.00000
      7       1.4214      2.00000
      8       4.0670      2.00000
      9       7.2022      2.00000
     10       7.7098      2.00000
     11       7.7098      2.00000
     12       8.0744      2.00000
     13       8.0744      2.00000
     14       9.3436      2.00000
     15       9.3436      2.00000
     16      10.4193      2.00000
     17      10.9200      2.00000
     18      10.9200      2.00000
     19      15.8084      0.00000
     20      26.2263      0.00000
     21      26.8060      0.00000
     22      28.3754      0.00000
     23      32.1688      0.00000
     24      32.1688      0.00000

[...]

 k-point    70 :       0.3000    0.3000    0.5000
  band No.  band energies     occupation
      1     -41.5988      2.00000
      2     -41.5988      2.00000
      3     -41.5219      2.00000
      4     -41.5219      2.00000
      5     -41.2362      2.00000
      6     -41.2362      2.00000
      7       5.9105      2.00000
      8       5.9105      2.00000
      9       6.7302      2.00000
     10       6.7302      2.00000
     11       7.4900      2.00000
     12       7.4900      2.00000
     13       8.7665      2.00000
     14       8.7665      2.00000
     15      11.0281      1.99247
     16      11.0281      1.99247
     17      16.4654      0.00000
     18      16.4654      0.00000
     19      18.4173      0.00000
     20      18.4173      0.00000
     21      20.6361      0.00000
     22      20.6361      0.00000
     23      27.9595      0.00000
     24      27.9595      0.00000

 soft charge-density along one line, spin component           1
         0         1         2         3         4         5         6         7         8         9
 total charge-density along one line

------------------------ aborting loop because EDIFF is reached ----------------------------------------

  FORCE on cell =-STRESS in cart. coord.  units (eV):
  Direction    XX          YY          ZZ          XY          YZ          ZX
  Alpha Z   303.71315   303.71315   303.71315
  Ewald   -1374.27429 -1374.27429 -1492.14368     0.00000     0.00000    -0.00000
  Hartree   277.65188   277.65188   225.51199    -0.00000    -0.00000    -0.00000
  E(xc)    -170.76458  -170.76458  -171.00379    -0.00000    -0.00000    -0.00000
  Local     183.56478   183.56476   341.24928    -0.00002    -0.00000    -0.00000
  n-local   -58.76781   -61.18761   -62.13732   -13.14240     3.59156     3.33854
  augment   145.63305   145.63306   149.22307     0.00001    -0.00000    -0.00000
  Kinetic   697.30267   691.23001   705.37924   -16.72708     3.60235     1.04266
  Fock        0.00000     0.00000     0.00000     0.00000     0.00000     0.00000
  Total      -0.18738    -0.18738    -0.20806    -0.00000     0.00000    -0.00000
  in kB      -9.50072    -9.50072   -10.54889    -0.00000     0.00000    -0.00000

 VOLUME and BASIS-vectors are now :
  energy-cutoff  :      500.00
  volume of cell :       31.60
      direct lattice vectors                 reciprocal lattice vectors
     2.760000000  0.000000000  0.000000000     0.362318841  0.209184880  0.000000000
    -1.380000000  2.390230114  0.000000000     0.000000000  0.418369760  0.000000000
     0.000000000  0.000000000  4.790000000     0.000000000  0.000000000  0.208768267

  length of vectors
     2.760000000  2.760000000  4.790000000     0.418369760  0.418369760  0.208768267

 FORCES acting on ions
    electron-ion (+dipol)            ewald-force                    non-local-force                 convergence-correction
   0.374E-06 -.216E-06 -.141E-12   0.179E-11 -.111E-11 -.683E-13   0.694E-17 0.000E+00 0.000E+00   -.507E-08 0.292E-08 0.175E-13
   -.288E-06 0.166E-06 -.307E-11   -.176E-11 0.110E-11 0.683E-13   -.694E-17 0.000E+00 0.000E+00   0.507E-08 -.293E-08 -.136E-13
   0.862E-07 -.498E-07 -.321E-11   0.219E-13 -.314E-14 0.000E+00   0.000E+00 0.000E+00 0.000E+00   0.509E-11 -.286E-11 0.387E-14

 POSITION                                       TOTAL-FORCE (eV/Angst)
      0.00000      0.00000      0.00000         0.000000     -0.000000      0.000000
      0.00000      1.59349      2.39500        -0.000000      0.000000      0.000000
    total drift:                                0.000000     -0.000000     -0.000000

  FREE ENERGIE OF THE ION-ELECTRON SYSTEM (eV)
  free  energy   TOTEN  =       -12.03984720 eV

  energy  without entropy=      -12.03512578  energy(sigma->0) =      -12.03748649