 vasp.6.3.2 27Jun22 (build Aug 12 2022 00:53:59) complex

 executed on               tv2STD date 2024.12.03  01:38:24

 INCAR:
   SYSTEM = Pt-hcc
   NWRITE = 2    write-flag
   ISTART = 0    job   : 0-new, 1-cont, 2-samecut
   ICHARG = 2    charge: 0-wave, 1-file, 2-atom, >10-const
   INIWAV = 1    electr: 0-lowe 1-rand  2-diag
   ENCUT = 450.0     energy cutoff in eV
   PREC = Accurate      normal | accurate
   ADDGRID = .FALSE.  (use fine grid)
   NELM = 100     number of ELM steps
   EDIFF = 1E-06    energy stopping-criterion for ELM
   LREAL = .FALSE.      real-space projection (.FALSE., .TRUE., On, Auto)
   ALGO = Normal     Normal, Fast, Very_Fast
   LWAVE = .TRUE.
   LCHARG = .TRUE.
   NSW = 100       max number of geometry steps
   IBRION = 2     ionic relax: 0-MD, 1-quasi-Newton, 2-CG, 3-Damped MD
   EDIFFG = -0.02  force (eV/A) stopping-criterion for geometry steps
   ISIF = 2     (1:force\=y stress\=trace only ions\=y shape\=n volume\=n)
   ISYM = 1     (1-use symmetry, 0-no symmetry)
   ISMEAR = 0     (-1-Fermi, 1-Methfessel/Paxton)
   SIGMA = 0.05   broadening in eV
   LORBIT = 11

 POTCAR:    PAW_PBE Pt_pv 12Dec2005
 POTCAR:    PAW_PBE Pt_pv 12Dec2005
   VRHFIN =Pt: 5ps1d9

   TITEL  = PAW_PBE Pt_pv 12Dec2005
   POMASS =  195.080; ZVAL   =   16.000    mass and valenz
   ENMAX  =  294.607; ENMIN  =  220.955 eV

  PAW_PBE Pt_pv 12Dec2005               :

 POSCAR: Pt
  positions in cartesian coordinates
 exchange correlation table for  LEXCH =        8
   RHO(1)=    0.500       N(1)  =     2000
   RHO(2)=  100.500       N(2)  =     4000

 ion  position               nearest neighbor table
   1  0.000  0.000  0.000-   2 2.75   2 2.75   2 2.75   2 2.75   2 2.75   2 2.75
   2  0.333  0.667  0.500-   1 2.75   1 2.75   1 2.75   1 2.75   1 2.75   1 2.75

  LATTYP: Found a hexagonal cell.
 ALAT       =     2.6428532370
 C/A-ratio  =     1.7324766951

  Lattice vectors:

 A1 = (   2.6428532370,   0.0000000000,   0.0000000000)
 A2 = (  -1.3214266185,   2.2887780418,   0.0000000000)
 A3 = (   0.0000000000,   0.0000000000,   4.5786816419)

Analysis of symmetry for initial positions (statically):
 Subroutine PRICEL returns:
 Original cell was already a primitive cell.

 Routine SETGRP: Setting up the symmetry group for a
 hexagonal supercell.

 Subroutine GETGRP returns: Found 24 space group operations
 (whereof 12 operations were pure point group operations)
 out of a pool of 24 trial point group operations.

The static configuration has the point symmetry D_3h.
 The point group associated with its full space group is D_6h.

Analysis of symmetry for dynamics (positions and initial velocities):
 Subroutine PRICEL returns:
 Original cell was already a primitive cell.

 Routine SETGRP: Setting up the symmetry group for a
 hexagonal supercell.

 Subroutine GETGRP returns: Found 24 space group operations
 (whereof 12 operations were pure point group operations)
 out of a pool of 24 trial point group operations.

The dynamic configuration has the point symmetry D_3h.
 The point group associated with its full space group is D_6h.

 Subroutine INISYM returns: Found 24 space group operations
 (whereof 12 operations are pure point group operations),
 and found     1 'primitive' translations

                                     Primitive cell

  volume of cell :      27.6960

  direct lattice vectors                    reciprocal lattice vectors
     2.642853237  0.000000000  0.000000000     0.378378938  0.218457181  0.000000000
    -1.321426619  2.288778042  0.000000000     0.000000000  0.436914363  0.000000000
     0.000000000  0.000000000  4.578681642     0.000000000  0.000000000  0.218403479

  length of vectors
     2.642853237  2.642853237  4.578681642     0.436914363  0.436914363  0.218403479

  position of ions in fractional coordinates (direct lattice)
     0.000000000  0.000000000  0.000000000
     0.333333333  0.666666667  0.500000000

  ion indices of the primitive-cell ions
   primitive index   ion index
                 1           1
                 2           2

 KPOINTS: Automatic mesh

Automatic generation of k-mesh.
 Grid dimensions read from file:
 generate k-points for:   10   10    8

 Generating k-lattice:

  Cartesian coordinates                     Fractional coordinates (reciprocal lattice)
     0.037837894  0.021845718  0.000000000     0.100000000  0.000000000  0.000000000
     0.000000000  0.043691436  0.000000000     0.000000000  0.100000000  0.000000000
     0.000000000  0.000000000  0.027300435     0.000000000  0.000000000  0.125000000

  Length of vectors
     0.043691436  0.043691436  0.027300435

  Shift w.r.t. Gamma in fractional coordinates (k-lattice)
     0.000000000  0.000000000  0.000000000

 Subroutine IBZKPT returns following result:

 Found     70 irreducible k-points:

 Following reciprocal coordinates:
            Coordinates               Weight
  0.000000  0.000000  0.000000      1.000000
  0.100000  0.000000  0.000000      6.000000
  0.200000  0.000000  0.000000      6.000000
  0.300000  0.000000  0.000000      6.000000
  0.400000  0.000000  0.000000      6.000000
  0.500000  0.000000  0.000000      3.000000
  0.100000  0.100000  0.000000      6.000000
  0.200000  0.100000  0.000000     12.000000
  0.300000  0.100000  0.000000     12.000000
  0.400000  0.100000  0.000000     12.000000
  0.200000  0.200000  0.000000      6.000000
  0.300000  0.200000  0.000000     12.000000
  0.400000  0.200000  0.000000      6.000000
  0.300000  0.300000  0.000000      6.000000
  0.000000  0.000000  0.125000      2.000000
  0.100000  0.000000  0.125000     12.000000
  0.200000  0.000000  0.125000     12.000000
  0.300000  0.000000  0.125000     12.000000
  0.400000  0.000000  0.125000     12.000000
  0.500000  0.000000  0.125000      6.000000
  0.100000  0.100000  0.125000     12.000000
  0.200000  0.100000  0.125000     24.000000
  0.300000  0.100000  0.125000     24.000000
  0.400000  0.100000  0.125000     24.000000
  0.200000  0.200000  0.125000     12.000000
  0.300000  0.200000  0.125000     24.000000
  0.400000  0.200000  0.125000     12.000000
  0.300000  0.300000  0.125000     12.000000
  0.000000  0.000000  0.250000      2.000000
  0.100000  0.000000  0.250000     12.000000
  0.200000  0.000000  0.250000     12.000000
  0.300000  0.000000  0.250000     12.000000
  0.400000  0.000000  0.250000     12.000000
  0.500000  0.000000  0.250000      6.000000
  0.100000  0.100000  0.250000     12.000000
  0.200000  0.100000  0.250000     24.000000
  0.300000  0.100000  0.250000     24.000000
  0.400000  0.100000  0.250000     24.000000
  0.200000  0.200000  0.250000     12.000000
  0.300000  0.200000  0.250000     24.000000
  0.400000  0.200000  0.250000     12.000000
  0.300000  0.300000  0.250000     12.000000
  0.000000  0.000000  0.375000      2.000000
  0.100000  0.000000  0.375000     12.000000
  0.200000  0.000000  0.375000     12.000000
  0.300000  0.000000  0.375000     12.000000
  0.400000  0.000000  0.375000     12.000000
  0.500000  0.000000  0.375000      6.000000
  0.100000  0.100000  0.375000     12.000000
  0.200000  0.100000  0.375000     24.000000
  0.300000  0.100000  0.375000     24.000000
  0.400000  0.100000  0.375000     24.000000
  0.200000  0.200000  0.375000     12.000000
  0.300000  0.200000  0.375000     24.000000
  0.400000  0.200000  0.375000     12.000000
  0.300000  0.300000  0.375000     12.000000
  0.000000  0.000000  0.500000      1.000000
  0.100000  0.000000  0.500000      6.000000
  0.200000  0.000000  0.500000      6.000000
  0.300000  0.000000  0.500000      6.000000
  0.400000  0.000000  0.500000      6.000000
  0.500000  0.000000  0.500000      3.000000
  0.100000  0.100000  0.500000      6.000000
  0.200000  0.100000  0.500000     12.000000
  0.300000  0.100000  0.500000     12.000000
  0.400000  0.100000  0.500000     12.000000
  0.200000  0.200000  0.500000      6.000000
  0.300000  0.200000  0.500000     12.000000
  0.400000  0.200000  0.500000      6.000000
  0.300000  0.300000  0.500000      6.000000

 Following cartesian coordinates:
            Coordinates               Weight
  0.000000  0.000000  0.000000      1.000000
  0.037838  0.021846  0.000000      6.000000
  0.075676  0.043691  0.000000      6.000000
  0.113514  0.065537  0.000000      6.000000
  0.151352  0.087383  0.000000      6.000000
  0.189189  0.109229  0.000000      3.000000
  0.037838  0.065537  0.000000      6.000000
  0.075676  0.087383  0.000000     12.000000
  0.113514  0.109229  0.000000     12.000000
  0.151352  0.131074  0.000000     12.000000
  0.075676  0.131074  0.000000      6.000000
  0.113514  0.152920  0.000000     12.000000
  0.151352  0.174766  0.000000      6.000000
  0.113514  0.196611  0.000000      6.000000
  0.000000  0.000000  0.027300      2.000000
  0.037838  0.021846  0.027300     12.000000
  0.075676  0.043691  0.027300     12.000000
  0.113514  0.065537  0.027300     12.000000
  0.151352  0.087383  0.027300     12.000000
  0.189189  0.109229  0.027300      6.000000
  0.037838  0.065537  0.027300     12.000000
  0.075676  0.087383  0.027300     24.000000
  0.113514  0.109229  0.027300     24.000000
  0.151352  0.131074  0.027300     24.000000
  0.075676  0.131074  0.027300     12.000000
  0.113514  0.152920  0.027300     24.000000
  0.151352  0.174766  0.027300     12.000000
  0.113514  0.196611  0.027300     12.000000
  0.000000  0.000000  0.054601      2.000000
  0.037838  0.021846  0.054601     12.000000
  0.075676  0.043691  0.054601     12.000000
  0.113514  0.065537  0.054601     12.000000
  0.151352  0.087383  0.054601     12.000000
  0.189189  0.109229  0.054601      6.000000
  0.037838  0.065537  0.054601     12.000000
  0.075676  0.087383  0.054601     24.000000
  0.113514  0.109229  0.054601     24.000000
  0.151352  0.131074  0.054601     24.000000
  0.075676  0.131074  0.054601     12.000000
  0.113514  0.152920  0.054601     24.000000
  0.151352  0.174766  0.054601     12.000000
  0.113514  0.196611  0.054601     12.000000
  0.000000  0.000000  0.081901      2.000000
  0.037838  0.021846  0.081901     12.000000
  0.075676  0.043691  0.081901     12.000000
  0.113514  0.065537  0.081901     12.000000
  0.151352  0.087383  0.081901     12.000000
  0.189189  0.109229  0.081901      6.000000
  0.037838  0.065537  0.081901     12.000000
  0.075676  0.087383  0.081901     24.000000
  0.113514  0.109229  0.081901     24.000000
  0.151352  0.131074  0.081901     24.000000
  0.075676  0.131074  0.081901     12.000000
  0.113514  0.152920  0.081901     24.000000
  0.151352  0.174766  0.081901     12.000000
  0.113514  0.196611  0.081901     12.000000
  0.000000  0.000000  0.109202      1.000000
  0.037838  0.021846  0.109202      6.000000
  0.075676  0.043691  0.109202      6.000000
  0.113514  0.065537  0.109202      6.000000
  0.151352  0.087383  0.109202      6.000000
  0.189189  0.109229  0.109202      3.000000
  0.037838  0.065537  0.109202      6.000000
  0.075676  0.087383  0.109202     12.000000
  0.113514  0.109229  0.109202     12.000000
  0.151352  0.131074  0.109202     12.000000
  0.075676  0.131074  0.109202      6.000000
  0.113514  0.152920  0.109202     12.000000
[...]
   0.30000000  0.10000000  0.00000000       0.015
   0.40000000  0.10000000  0.00000000       0.015
   0.20000000  0.20000000  0.00000000       0.007
   0.30000000  0.20000000  0.00000000       0.015
   0.40000000  0.20000000  0.00000000       0.007
   0.30000000  0.30000000  0.00000000       0.007
   0.00000000  0.00000000  0.12500000       0.003
   0.10000000  0.00000000  0.12500000       0.015
   0.20000000  0.00000000  0.12500000       0.015
   0.30000000  0.00000000  0.12500000       0.015
   0.40000000  0.00000000  0.12500000       0.015
   0.50000000  0.00000000  0.12500000       0.007
   0.10000000  0.10000000  0.12500000       0.015
   0.20000000  0.10000000  0.12500000       0.030
   0.30000000  0.10000000  0.12500000       0.030
   0.40000000  0.10000000  0.12500000       0.030
   0.20000000  0.20000000  0.12500000       0.015
   0.30000000  0.20000000  0.12500000       0.030
   0.40000000  0.20000000  0.12500000       0.015
   0.30000000  0.30000000  0.12500000       0.015
   0.00000000  0.00000000  0.25000000       0.003
   0.10000000  0.00000000  0.25000000       0.015
   0.20000000  0.00000000  0.25000000       0.015
   0.30000000  0.00000000  0.25000000       0.015
   0.40000000  0.00000000  0.25000000       0.015
   0.50000000  0.00000000  0.25000000       0.007
   0.10000000  0.10000000  0.25000000       0.015
   0.20000000  0.10000000  0.25000000       0.030
   0.30000000  0.10000000  0.25000000       0.030
   0.40000000  0.10000000  0.25000000       0.030
   0.20000000  0.20000000  0.25000000       0.015
   0.30000000  0.20000000  0.25000000       0.030
   0.40000000  0.20000000  0.25000000       0.015
   0.30000000  0.30000000  0.25000000       0.015
   0.00000000  0.00000000  0.37500000       0.003
   0.10000000  0.00000000  0.37500000       0.015
   0.20000000  0.00000000  0.37500000       0.015
   0.30000000  0.00000000  0.37500000       0.015
   0.40000000  0.00000000  0.37500000       0.015
   0.50000000  0.00000000  0.37500000       0.007
   0.10000000  0.10000000  0.37500000       0.015
   0.20000000  0.10000000  0.37500000       0.030
   0.30000000  0.10000000  0.37500000       0.030
   0.40000000  0.10000000  0.37500000       0.030
   0.20000000  0.20000000  0.37500000       0.015
   0.30000000  0.20000000  0.37500000       0.030
   0.40000000  0.20000000  0.37500000       0.015
   0.30000000  0.30000000  0.37500000       0.015
   0.00000000  0.00000000  0.50000000       0.001
   0.10000000  0.00000000  0.50000000       0.007
   0.20000000  0.00000000  0.50000000       0.007
   0.30000000  0.00000000  0.50000000       0.007
   0.40000000  0.00000000  0.50000000       0.007
   0.50000000  0.00000000  0.50000000       0.004
   0.10000000  0.10000000  0.50000000       0.007
   0.20000000  0.10000000  0.50000000       0.015
   0.30000000  0.10000000  0.50000000       0.015
   0.40000000  0.10000000  0.50000000       0.015
   0.20000000  0.20000000  0.50000000       0.007
   0.30000000  0.20000000  0.50000000       0.015
   0.40000000  0.20000000  0.50000000       0.007
   0.30000000  0.30000000  0.50000000       0.007

 position of ions in fractional coordinates (direct lattice)
   0.00000000  0.00000000  0.00000000
   0.33333333  0.66666667  0.50000000

 position of ions in cartesian coordinates  (Angst):
   0.00000000  0.00000000  0.00000000
   0.00000000  1.52585203  2.28934082

 k-point   1 :   0.0000 0.0000 0.0000  plane waves:     597
 k-point   2 :   0.1000 0.0000 0.0000  plane waves:     604
 k-point   3 :   0.2000 0.0000 0.0000  plane waves:     604
 k-point   4 :   0.3000 0.0000 0.0000  plane waves:     600
 k-point   5 :   0.4000 0.0000 0.0000  plane waves:     600
 k-point   6 :   0.5000 0.0000 0.0000  plane waves:     596
 k-point   7 :   0.1000 0.1000 0.0000  plane waves:     603
 k-point   8 :   0.2000 0.1000 0.0000  plane waves:     610
 k-point   9 :   0.3000 0.1000 0.0000  plane waves:     601
 k-point  10 :   0.4000 0.1000 0.0000  plane waves:     595
 k-point  11 :   0.2000 0.2000 0.0000  plane waves:     601
 k-point  12 :   0.3000 0.2000 0.0000  plane waves:     596
 k-point  13 :   0.4000 0.2000 0.0000  plane waves:     582
 k-point  14 :   0.3000 0.3000 0.0000  plane waves:     592
 k-point  15 :   0.0000 0.0000 0.1250  plane waves:     604
 k-point  16 :   0.1000 0.0000 0.1250  plane waves:     603
 k-point  17 :   0.2000 0.0000 0.1250  plane waves:     608
 k-point  18 :   0.3000 0.0000 0.1250  plane waves:     599
 k-point  19 :   0.4000 0.0000 0.1250  plane waves:     593
 k-point  20 :   0.5000 0.0000 0.1250  plane waves:     590
 k-point  21 :   0.1000 0.1000 0.1250  plane waves:     603
 k-point  22 :   0.2000 0.1000 0.1250  plane waves:     603
 k-point  23 :   0.3000 0.1000 0.1250  plane waves:     607
 k-point  24 :   0.4000 0.1000 0.1250  plane waves:     594
 k-point  25 :   0.2000 0.2000 0.1250  plane waves:     599
 k-point  26 :   0.3000 0.2000 0.1250  plane waves:     596
 k-point  27 :   0.4000 0.2000 0.1250  plane waves:     594
 k-point  28 :   0.3000 0.3000 0.1250  plane waves:     590
 k-point  29 :   0.0000 0.0000 0.2500  plane waves:     610
 k-point  30 :   0.1000 0.0000 0.2500  plane waves:     607
 k-point  31 :   0.2000 0.0000 0.2500  plane waves:     608
 k-point  32 :   0.3000 0.0000 0.2500  plane waves:     613
 k-point  33 :   0.4000 0.0000 0.2500  plane waves:     593
 k-point  34 :   0.5000 0.0000 0.2500  plane waves:     594
 k-point  35 :   0.1000 0.1000 0.2500  plane waves:     606
 k-point  36 :   0.2000 0.1000 0.2500  plane waves:     603
 k-point  37 :   0.3000 0.1000 0.2500  plane waves:     599
 k-point  38 :   0.4000 0.1000 0.2500  plane waves:     598
 k-point  39 :   0.2000 0.2000 0.2500  plane waves:     602
 k-point  40 :   0.3000 0.2000 0.2500  plane waves:     596
 k-point  41 :   0.4000 0.2000 0.2500  plane waves:     599
 k-point  42 :   0.3000 0.3000 0.2500  plane waves:     597
 k-point  43 :   0.0000 0.0000 0.3750  plane waves:     604
 k-point  44 :   0.1000 0.0000 0.3750  plane waves:     614
 k-point  45 :   0.2000 0.0000 0.3750  plane waves:     609
 k-point  46 :   0.3000 0.0000 0.3750  plane waves:     610
 k-point  47 :   0.4000 0.0000 0.3750  plane waves:     597
 k-point  48 :   0.5000 0.0000 0.3750  plane waves:     600
 k-point  49 :   0.1000 0.1000 0.3750  plane waves:     615
 k-point  50 :   0.2000 0.1000 0.3750  plane waves:     605
 k-point  51 :   0.3000 0.1000 0.3750  plane waves:     597
 k-point  52 :   0.4000 0.1000 0.3750  plane waves:     598
 k-point  53 :   0.2000 0.2000 0.3750  plane waves:     603
 k-point  54 :   0.3000 0.2000 0.3750  plane waves:     594
 k-point  55 :   0.4000 0.2000 0.3750  plane waves:     598
 k-point  56 :   0.3000 0.3000 0.3750  plane waves:     594
 k-point  57 :   0.0000 0.0000 0.5000  plane waves:     604
 k-point  58 :   0.1000 0.0000 0.5000  plane waves:     614
 k-point  59 :   0.2000 0.0000 0.5000  plane waves:     614
 k-point  60 :   0.3000 0.0000 0.5000  plane waves:     606
 k-point  61 :   0.4000 0.0000 0.5000  plane waves:     602
 k-point  62 :   0.5000 0.0000 0.5000  plane waves:     588
 k-point  63 :   0.1000 0.1000 0.5000  plane waves:     610
 k-point  64 :   0.2000 0.1000 0.5000  plane waves:     610
 k-point  65 :   0.3000 0.1000 0.5000  plane waves:     590
 k-point  66 :   0.4000 0.1000 0.5000  plane waves:     600
 k-point  67 :   0.2000 0.2000 0.5000  plane waves:     594
 k-point  68 :   0.3000 0.2000 0.5000  plane waves:     590
 k-point  69 :   0.4000 0.2000 0.5000  plane waves:     600
 k-point  70 :   0.3000 0.3000 0.5000  plane waves:     596

 maximum and minimum number of plane-waves per node :       615      582

 maximum number of plane-waves:       615
 maximum index in each direction:
   IXMAX=    4   IYMAX=    4   IZMAX=    7
   IXMIN=   -5   IYMIN=   -4   IZMIN=   -8

 serial   3D FFT for wavefunctions
 parallel 3D FFT for charge:
    minimum data exchange during FFTs selected (reduces bandwidth)

 Broyden mixing: mesh for mixing (old mesh)
   NGX =  9   NGY =  9   NGZ = 15
  (NGX  = 36   NGY  = 36   NGZ  = 64)
  gives a total of   1215 points

 initial charge density was supplied:
 charge density of overlapping atoms calculated
 number of electron      32.0000000 magnetization
 keeping initial charge density in first step

 Maximum index for augmentation-charges          830 (set IRDMAX)

 First call to EWALD:  gamma=   0.586
 Maximum number of real-space cells 3x 3x 2
 Maximum number of reciprocal cells 2x 2x 4

--------------------------------------- Iteration      1(   1)  ---------------------------------------

 eigenvalue-minimisations  :  3384
 total energy-change (2. order) : 0.1384072E+03  (-0.2343580E+04)
 number of electron      32.0000000 magnetization
 augmentation part       32.0000000 magnetization

 Free energy of the ion-electron system (eV)
  alpha Z        PSCENC =       346.52193606
  Ewald energy   TEWEN  =     -4431.38450057
  -Hartree energ DENC   =      -733.08570176
  -exchange      EXHF   =         0.00000000
  -V(xc)+E(xc)   XCENC  =       128.73372811
  PAW double counting   =      4131.50523274    -4061.67189606
  entropy T*S    EENTRO =        -0.00050375
  eigenvalues    EBANDS =       -98.64073307
  atomic energy  EATOM  =      4856.42966544
  Solvation  Ediel_sol  =         0.00000000
  free energy    TOTEN  =       138.40722713 eV

  energy without entropy =      138.40773089  energy(sigma->0) =      138.40747901

[...]

 eigenvalue-minimisations  :  3432
 total energy-change (2. order) :-0.1494560E+03  (-0.1487550E+03)
 number of electron      32.0000000 magnetization
 augmentation part       32.0000000 magnetization

[...]

 Broyden mixing:
  rms(total) = 0.27139E+01    rms(broyden)= 0.27137E+01
  rms(prec ) = 0.28673E+01
  weight for this iteration     100.00

[...]

 eigenvalues of (default mixing * dielectric matrix)
  average eigenvalue GAMMA=   1.6060
  1.6060

[...]

 eigenvalue-minimisations  :  4344
 total energy-change (2. order) :-0.9222184E-05  (-0.9817158E-06)
 number of electron      31.9999975 magnetization
 augmentation part        8.2302123 magnetization

 Broyden mixing:
  rms(total) = 0.10219E-02    rms(broyden)= 0.10215E-02
  rms(prec ) = 0.11588E-02
  weight for this iteration     100.00

 eigenvalues of (default mixing * dielectric matrix)
  average eigenvalue GAMMA=   1.7440
  2.6295  2.2241  0.9865  1.2655  1.6143

[...]

--------------------------------------- Iteration      1(  11)  ---------------------------------------

 eigenvalue-minimisations  :  2688
 total energy-change (2. order) : 0.6828386E-06  (-0.6370148E-07)
 number of electron      31.9999975 magnetization
 augmentation part        8.2302123 magnetization

 Free energy of the ion-electron system (eV)
  alpha Z        PSCENC =       346.52193606
  Ewald energy   TEWEN  =     -4431.38450057
  -Hartree energ DENC   =      -696.57050627
  -exchange      EXHF   =         0.00000000
  -V(xc)+E(xc)   XCENC  =       127.10573267
  PAW double counting   =      5075.37353692    -5011.68478019
  entropy T*S    EENTRO =        -0.00365611
  eigenvalues    EBANDS =      -277.35299014
  atomic energy  EATOM  =      4856.42966544
  Solvation  Ediel_sol  =         0.00000000
  free energy    TOTEN  =       -11.56556220 eV

  energy without entropy =      -11.56190609  energy(sigma->0) =      -11.56373414

 average (electrostatic) potential at core
  the test charge radii are     0.9952
  (the norm of the test charge is              1.0000)
       1 -87.2537       2 -87.2537

 E-fermi :  13.7983     XC(G=0): -14.5601     alpha+bet :-18.9434

 Fermi energy:        13.7982747671

 k-point     1 :       0.0000    0.0000    0.0000
  band No.  band energies     occupation
      1     -39.4410      2.00000
      2     -39.0588      2.00000
      3     -39.0588      2.00000
      4     -38.9940      2.00000
      5     -38.9940      2.00000
      6     -38.8940      2.00000
      7       2.5900      2.00000
      8       5.3418      2.00000
      9       8.9442      2.00000
     10       9.5648      2.00000
     11       9.5648      2.00000
     12      10.0287      2.00000
     13      10.0287      2.00000
     14      11.5499      2.00000
     15      11.5499      2.00000
     16      12.4962      2.00000
     17      13.5288      2.00000
     18      13.5288      2.00000
     19      19.4245      0.00000
     20      28.5829      0.00000
     21      29.3887      0.00000
     22      31.0074      0.00000
     23      36.2460      0.00000
     24      36.2460      0.00000

[...]

 k-point    70 :       0.3000    0.3000    0.5000
  band No.  band energies     occupation
      1     -39.5350      2.00000
      2     -39.5350      2.00000
      3     -39.4067      2.00000
      4     -39.4067      2.00000
      5     -39.0303      2.00000
      6     -39.0303      2.00000
      7       7.3478      2.00000
      8       7.3478      2.00000
      9       8.3378      2.00000
     10       8.3378      2.00000
     11       9.2966      2.00000
     12       9.2966      2.00000
     13      10.8356      2.00000
     14      10.8356      2.00000
     15      13.6691      1.99974
     16      13.6691      1.99974
     17      19.7897      0.00000
     18      19.7897      0.00000
     19      21.9514      0.00000
     20      21.9514      0.00000
     21      24.3129      0.00000
     22      24.3129      0.00000
     23      31.6791      0.00000
     24      31.6791      0.00000

 soft charge-density along one line, spin component           1
         0         1         2         3         4         5         6         7         8         9
 total charge-density along one line

------------------------ aborting loop because EDIFF is reached ----------------------------------------

 total charge

# of ion       s       p       d       tot
    1        0.372   6.114   7.111  13.597
    2        0.372   6.114   7.111  13.597
tot          0.743  12.228  14.223  27.194

  FORCE on cell =-STRESS in cart. coord.  units (eV):
  Direction    XX          YY          ZZ          XY          YZ          ZX
  Alpha Z   346.52194   346.52194   346.52194
  Ewald   -1437.40001 -1437.40001 -1556.58654     0.00000     0.00000     0.00000
  Hartree   248.38778   248.38778   199.79749    -0.00000    -0.00000    -0.00000
  E(xc)    -171.99079  -171.99079  -172.22619    -0.00000    -0.00000     0.00000
  Local     232.68919   232.68922   386.89819     0.00002    -0.00000    -0.00000
  n-local   -52.90344   -55.79992   -56.70858   -14.23134     3.85029     3.40872
  augment   145.34247   145.34244   149.08464    -0.00003     0.00000     0.00000
  Kinetic   701.39790   695.72121   709.97273   -18.75009     4.06045     1.01288
  Fock        0.00000     0.00000     0.00000     0.00000     0.00000     0.00000
  Total       7.75844     7.75844     6.75367     0.00000     0.00000     0.00000
  in kB     448.81560   448.81560   390.69090     0.00000     0.00000     0.00000

 VOLUME and BASIS-vectors are now :
  energy-cutoff  :      450.00
  volume of cell :       27.70
      direct lattice vectors                 reciprocal lattice vectors
     2.642853237  0.000000000  0.000000000     0.378378938  0.218457181  0.000000000
    -1.321426619  2.288778042  0.000000000     0.000000000  0.436914363  0.000000000
     0.000000000  0.000000000  4.578681642     0.000000000  0.000000000  0.218403479

  length of vectors
     2.642853237  2.642853237  4.578681642     0.436914363  0.436914363  0.218403479

 FORCES acting on ions
    electron-ion (+dipol)            ewald-force                    non-local-force                 convergence-correction
   -.359E-07 0.207E-07 -.104E-12   0.198E-11 -.113E-11 -.742E-13   -.104E-16 0.555E-16 0.000E+00   0.282E-08 -.163E-08 0.567E-13
   0.359E-07 -.207E-07 -.210E-11   -.199E-11 0.113E-11 0.742E-13   0.104E-16 -.555E-16 0.000E+00   -.282E-08 0.163E-08 0.683E-13
   -.356E-10 0.206E-10 -.220E-11   -.245E-14 0.683E-14 0.000E+00   0.000E+00 0.000E+00 0.000E+00   0.124E-12 -.343E-13 0.125E-12

 POSITION                                       TOTAL-FORCE (eV/Angst)
      0.00000      0.00000      0.00000         0.000000      0.000000      0.000000
      0.00000      1.52585      2.28934        -0.000000      0.000000      0.000000
    total drift:                               -0.000000      0.000000     -0.000000

  FREE ENERGIE OF THE ION-ELECTRON SYSTEM (eV)
  free  energy   TOTEN  =       -11.56556220 eV

  energy  without entropy=      -11.56190609  energy(sigma->0) =      -11.56373414

 reached required accuracy - stopping structural energy minimisation
 writing wavefunctions

 total charge

# of ion       s       p       d       tot
    1        0.372   6.114   7.111  13.597
    2        0.372   6.114   7.111  13.597
tot          0.743  12.228  14.223  27.194