 vasp.6.3.2 27Jun22 (build Aug 12 2022 00:53:59) complex

 executed on               tv2STD date 2024.11.30  15:55:58

 INCAR:
   SYSTEM = Pt-fcc
   NWRITE = 2    write-flag
   ISTART = 0    job   : 0-new, 1-cont, 2-samecut
   ICHARG = 2    charge: 0-wave, 1-file, 2-atom, >10-const
   INIWAV = 1    electr: 0-lowe 1-rand  2-diag
   ENCUT = 425.0     energy cutoff in eV
   PREC = accurate      normal | accurate
   ADDGRID = .FALSE.  (use fine grid)
   NELM = 100     number of ELM steps
   EDIFF = 1E-06    energy stopping-criterion for ELM
   LREAL = .FALSE.      real-space projection (.FALSE., .TRUE., On, Auto)
   ALGO = Normal     Normal, Fast, Very_Fast
   LWAVE = .FALSE.
   LCHARG = .FALSE.
   NSW = 0       max number of geometry steps
   IBRION = -1     ionic relax: 0-MD, 1-quasi-Newton, 2-CG, 3-Damped MD
   EDIFFG = -0.02  force (eV/A) stopping-criterion for geometry steps
   ISIF = 2     (1:force\=y stress\=trace only ions\=y shape\=n volume\=n)
   ISYM = 1     (1-use symmetry, 0-no symmetry)
   ISMEAR = 0     (-1-Fermi, 1-Methfessel/Paxton)
   SIGMA = 0.05   broadening in eV

 POTCAR:    PAW_PBE Pt_pv 12Dec2005
 POTCAR:    PAW_PBE Pt_pv 12Dec2005
   VRHFIN =Pt: 5ps1d9

   TITEL  = PAW_PBE Pt_pv 12Dec2005
   POMASS =  195.080; ZVAL   =   16.000    mass and valenz
   ENMAX  =  294.607; ENMIN  =  220.955 eV

  PAW_PBE Pt_pv 12Dec2005               :

 POSCAR: Pt
  positions in cartesian coordinates
 exchange correlation table for  LEXCH =        8
   RHO(1)=    0.500       N(1)  =     2000
   RHO(2)=  100.500       N(2)  =     4000

 ion  position               nearest neighbor table
   1  0.000  0.000  0.000-

  LATTYP: Found a face centered cubic cell.
 ALAT       =     3.9400000000

  Lattice vectors:

 A1 = (   0.0000000000,   1.9700000000,   1.9700000000)
 A2 = (   1.9700000000,   0.0000000000,   1.9700000000)
 A3 = (   1.9700000000,   1.9700000000,   0.0000000000)

Analysis of symmetry for initial positions (statically):
 Subroutine PRICEL returns:
 Original cell was already a primitive cell.

 Routine SETGRP: Setting up the symmetry group for a
 face centered cubic supercell.

 Subroutine GETGRP returns: Found 48 space group operations
 (whereof 48 operations were pure point group operations)
 out of a pool of 48 trial point group operations.

The static configuration has the point symmetry O_h .

Analysis of symmetry for dynamics (positions and initial velocities):
 Subroutine PRICEL returns:
 Original cell was already a primitive cell.

 Routine SETGRP: Setting up the symmetry group for a
 face centered cubic supercell.

 Subroutine GETGRP returns: Found 48 space group operations
 (whereof 48 operations were pure point group operations)
 out of a pool of 48 trial point group operations.

The dynamic configuration has the point symmetry O_h .

 Subroutine INISYM returns: Found 48 space group operations
 (whereof 48 operations are pure point group operations),
 and found     1 'primitive' translations

                                     Primitive cell

  volume of cell :      15.2907

  direct lattice vectors                    reciprocal lattice vectors
     0.000000000  1.970000000  1.970000000    -0.253807107  0.253807107  0.253807107
     1.970000000  0.000000000  1.970000000     0.253807107 -0.253807107  0.253807107
     1.970000000  1.970000000  0.000000000     0.253807107  0.253807107 -0.253807107

  length of vectors
     2.786000718  2.786000718  2.786000718     0.439606804  0.439606804  0.439606804

  position of ions in fractional coordinates (direct lattice)
     0.000000000  0.000000000  0.000000000

  ion indices of the primitive-cell ions
   primitive index   ion index
                 1           1

 KPOINTS: Automatic mesh

Automatic generation of k-mesh.
 Grid dimensions read from file:
 generate k-points for:    8    8    8

 Generating k-lattice:

  Cartesian coordinates                     Fractional coordinates (reciprocal lattice)
    -0.031725888  0.031725888  0.031725888     0.125000000  0.000000000  0.000000000
     0.031725888 -0.031725888  0.031725888     0.000000000  0.125000000  0.000000000
     0.031725888  0.031725888 -0.031725888     0.000000000  0.000000000  0.125000000

  Length of vectors
     0.054950850  0.054950850  0.054950850

  Shift w.r.t. Gamma in fractional coordinates (k-lattice)
     0.500000000  0.500000000  0.500000000

 Subroutine IBZKPT returns following result:

 Found     60 irreducible k-points:

 Following reciprocal coordinates:
            Coordinates               Weight
  0.062500  0.062500  0.062500      8.000000
  0.187500  0.062500  0.062500     24.000000
  0.312500  0.062500  0.062500     24.000000
  0.437500  0.062500  0.062500     24.000000
 -0.437500  0.062500  0.062500     24.000000
 -0.312500  0.062500  0.062500     24.000000
 -0.187500  0.062500  0.062500     24.000000
 -0.062500  0.062500  0.062500     24.000000
  0.187500  0.187500  0.062500     24.000000
  0.312500  0.187500  0.062500     48.000000
  0.437500  0.187500  0.062500     48.000000
 -0.437500  0.187500  0.062500     48.000000
 -0.312500  0.187500  0.062500     48.000000
 -0.187500  0.187500  0.062500     48.000000
 -0.062500  0.187500  0.062500     48.000000
  0.312500  0.312500  0.062500     24.000000
  0.437500  0.312500  0.062500     48.000000
 -0.437500  0.312500  0.062500     48.000000
 -0.312500  0.312500  0.062500     48.000000
 -0.187500  0.312500  0.062500     48.000000
 -0.062500  0.312500  0.062500     48.000000
  0.437500  0.437500  0.062500     24.000000
 -0.437500  0.437500  0.062500     48.000000
 -0.312500  0.437500  0.062500     48.000000
 -0.187500  0.437500  0.062500     48.000000
 -0.062500  0.437500  0.062500     48.000000
 -0.437500 -0.437500  0.062500     24.000000
 -0.312500 -0.437500  0.062500     48.000000
 -0.187500 -0.437500  0.062500     48.000000
 -0.312500 -0.312500  0.062500     24.000000
 -0.187500 -0.312500  0.062500     48.000000
 -0.187500 -0.187500  0.062500     24.000000
  0.187500  0.187500  0.187500      8.000000
  0.312500  0.187500  0.187500     24.000000
  0.437500  0.187500  0.187500     24.000000
 -0.437500  0.187500  0.187500     24.000000
 -0.312500  0.187500  0.187500     24.000000
 -0.187500  0.187500  0.187500     24.000000
  0.312500  0.312500  0.187500     24.000000
  0.437500  0.312500  0.187500     48.000000
 -0.437500  0.312500  0.187500     48.000000
 -0.312500  0.312500  0.187500     48.000000
 -0.187500  0.312500  0.187500     48.000000
  0.437500  0.437500  0.187500     24.000000
 -0.437500  0.437500  0.187500     48.000000
 -0.312500  0.437500  0.187500     48.000000
 -0.187500  0.437500  0.187500     48.000000
 -0.437500 -0.437500  0.187500     24.000000
 -0.312500 -0.437500  0.187500     48.000000
 -0.312500 -0.312500  0.187500     24.000000
  0.312500  0.312500  0.312500      8.000000
  0.437500  0.312500  0.312500     24.000000
 -0.437500  0.312500  0.312500     24.000000
 -0.312500  0.312500  0.312500     24.000000
  0.437500  0.437500  0.312500     24.000000
 -0.437500  0.437500  0.312500     48.000000
 -0.312500  0.437500  0.312500     48.000000
 -0.437500 -0.437500  0.312500     24.000000
  0.437500  0.437500  0.437500      8.000000
 -0.437500  0.437500  0.437500     24.000000

 Following cartesian coordinates:
            Coordinates               Weight
  0.015863  0.015863  0.015863      8.000000
 -0.015863  0.047589  0.047589     24.000000
 -0.047589  0.079315  0.079315     24.000000
 -0.079315  0.111041  0.111041     24.000000
  0.142766 -0.111041 -0.111041     24.000000
  0.111041 -0.079315 -0.079315     24.000000
  0.079315 -0.047589 -0.047589     24.000000
  0.047589 -0.015863 -0.015863     24.000000
  0.015863  0.015863  0.079315     24.000000
 -0.015863  0.047589  0.111041     48.000000
 -0.047589  0.079315  0.142766     48.000000
  0.174492 -0.142766 -0.079315     48.000000
  0.142766 -0.111041 -0.047589     48.000000
  0.111041 -0.079315 -0.015863     48.000000
  0.079315 -0.047589  0.015863     48.000000
  0.015863  0.015863  0.142766     24.000000
 -0.015863  0.047589  0.174492     48.000000
  0.206218 -0.174492 -0.047589     48.000000
  0.174492 -0.142766 -0.015863     48.000000
  0.142766 -0.111041  0.015863     48.000000
  0.111041 -0.079315  0.047589     48.000000
  0.015863  0.015863  0.206218     24.000000
  0.237944 -0.206218 -0.015863     48.000000
  0.206218 -0.174492  0.015863     48.000000
  0.174492 -0.142766  0.047589     48.000000
  0.142766 -0.111041  0.079315     48.000000
  0.015863  0.015863 -0.237944     24.000000
 -0.015863  0.047589 -0.206218     48.000000
 -0.047589  0.079315 -0.174492     48.000000
  0.015863  0.015863 -0.174492     24.000000
 -0.015863  0.047589 -0.142766     48.000000
  0.015863  0.015863 -0.111041     24.000000
  0.047589  0.047589  0.047589      8.000000
  0.015863  0.079315  0.079315     24.000000
 -0.015863  0.111041  0.111041     24.000000
  0.206218 -0.111041 -0.111041     24.000000
  0.174492 -0.079315 -0.079315     24.000000
  0.142766 -0.047589 -0.047589     24.000000
  0.047589  0.047589  0.111041     24.000000
  0.015863  0.079315  0.142766     48.000000
  0.237944 -0.142766 -0.079315     48.000000
  0.206218 -0.111041 -0.047589     48.000000
  0.174492 -0.079315 -0.015863     48.000000
  0.047589  0.047589  0.174492     24.000000
  0.269670 -0.174492 -0.047589     48.000000
  0.237944 -0.142766 -0.015863     48.000000
  0.206218 -0.111041  0.015863     48.000000
  0.047589  0.047589 -0.269670     24.000000
  0.015863  0.079315 -0.237944     48.000000
  0.047589  0.047589 -0.206218     24.000000
  0.079315  0.079315  0.079315      8.000000
  0.047589  0.111041  0.111041     24.000000
  0.269670 -0.111041 -0.111041     24.000000
  0.237944 -0.079315 -0.079315     24.000000
  0.079315  0.079315  0.142766     24.000000
  0.301396 -0.142766 -0.079315     48.000000
  0.269670 -0.111041 -0.047589     48.000000
  0.079315  0.079315 -0.301396     24.000000
  0.111041  0.111041  0.111041      8.000000
  0.333122 -0.111041 -0.111041     24.000000

 SYSTEM =  Pt-fcc
 POSCAR =  Pt

 Startparameter for this run:
   NWRITE =      2    write-flag & timer
   PREC   = accura    normal or accurate (medium, high low for compatibility)
   ISTART =      0    job   : 0-new  1-cont  2-samecut
   ICHARG =      2    charge: 1-file 2-atom 10-const
   ISPIN  =      1    spin polarized calculation?
   LNONCOLLINEAR =      F non collinear calculations
   LSORBIT =      F    spin-orbit coupling
   INIWAV =      1    electr: 0-lowe 1-rand  2-diag
   LASPH  =      F    aspherical Exc in radial PAW
 Electronic Relaxation 1
   ENCUT  =  425.0 eV  31.24 Ry    5.59 a.u.   4.68  4.68  4.68*2*pi/ulx,y,z
   ENINI  =  425.0     initial cutoff
   ENAUG  =  527.0 eV  augmentation charge cutoff
   NELM   =    100;   NELMIN=  2; NELMDL= -5     # of ELM steps
   EDIFF  = 0.1E-05   stopping-criterion for ELM
   LREAL  =      F    real-space projection
   NLSPLINE    = F    spline interpolate recip. space projectors
   LCOMPAT=      F    compatible to vasp.4.4
   GGA_COMPAT  = T    GGA compatible to vasp.4.4-vasp.4.6
   LMAXPAW     = -100 max onsite density
   LMAXMIX     =    2 max onsite mixed and CHGCAR
[...]
   0.04758883  0.04758883  0.04758883       0.004
   0.01586294  0.07931472  0.07931472       0.012
  -0.01586294  0.11104061  0.11104061       0.012
   0.20621827 -0.11104061 -0.11104061       0.012
   0.17449239 -0.07931472 -0.07931472       0.012
   0.14276650 -0.04758883 -0.04758883       0.012
   0.04758883  0.04758883  0.11104061       0.012
   0.01586294  0.07931472  0.14276650       0.023
   0.23794416 -0.14276650 -0.07931472       0.023
   0.20621827 -0.11104061 -0.04758883       0.023
   0.17449239 -0.07931472 -0.01586294       0.023
   0.04758883  0.04758883  0.17449239       0.012
   0.26967005 -0.17449239 -0.04758883       0.023
   0.23794416 -0.14276650 -0.01586294       0.023
   0.20621827 -0.11104061  0.01586294       0.023
   0.04758883  0.04758883 -0.26967005       0.012
   0.01586294  0.07931472 -0.23794416       0.023
   0.04758883  0.04758883 -0.20621827       0.012
   0.07931472  0.07931472  0.07931472       0.004
   0.04758883  0.11104061  0.11104061       0.012
   0.26967005 -0.11104061 -0.11104061       0.012
   0.23794416 -0.07931472 -0.07931472       0.012
   0.07931472  0.07931472  0.14276650       0.012
   0.30139594 -0.14276650 -0.07931472       0.023
   0.26967005 -0.11104061 -0.04758883       0.023
   0.07931472  0.07931472 -0.30139594       0.012
   0.11104061  0.11104061  0.11104061       0.004
   0.33312183 -0.11104061 -0.11104061       0.012

 k-points in reciprocal lattice and weights: Automatic mesh
   0.06250000  0.06250000  0.06250000       0.004
   0.18750000  0.06250000  0.06250000       0.012
   0.31250000  0.06250000  0.06250000       0.012
   0.43750000  0.06250000  0.06250000       0.012
  -0.43750000  0.06250000  0.06250000       0.012
  -0.31250000  0.06250000  0.06250000       0.012
  -0.18750000  0.06250000  0.06250000       0.012
  -0.06250000  0.06250000  0.06250000       0.012
   0.18750000  0.18750000  0.06250000       0.012
   0.31250000  0.18750000  0.06250000       0.023
   0.43750000  0.18750000  0.06250000       0.023
  -0.43750000  0.18750000  0.06250000       0.023
  -0.31250000  0.18750000  0.06250000       0.023
  -0.18750000  0.18750000  0.06250000       0.023
  -0.06250000  0.18750000  0.06250000       0.023
   0.31250000  0.31250000  0.06250000       0.012
   0.43750000  0.31250000  0.06250000       0.023
  -0.43750000  0.31250000  0.06250000       0.023
  -0.31250000  0.31250000  0.06250000       0.023
  -0.18750000  0.31250000  0.06250000       0.023
  -0.06250000  0.31250000  0.06250000       0.023
   0.43750000  0.43750000  0.06250000       0.012
  -0.43750000  0.43750000  0.06250000       0.023
  -0.31250000  0.43750000  0.06250000       0.023
  -0.18750000  0.43750000  0.06250000       0.023
  -0.06250000  0.43750000  0.06250000       0.023
  -0.43750000 -0.43750000  0.06250000       0.012
  -0.31250000 -0.43750000  0.06250000       0.023
  -0.18750000 -0.43750000  0.06250000       0.023
  -0.31250000 -0.31250000  0.06250000       0.012
  -0.18750000 -0.31250000  0.06250000       0.023
  -0.18750000 -0.18750000  0.06250000       0.012
   0.18750000  0.18750000  0.18750000       0.004
   0.31250000  0.18750000  0.18750000       0.012
   0.43750000  0.18750000  0.18750000       0.012
  -0.43750000  0.18750000  0.18750000       0.012
  -0.31250000  0.18750000  0.18750000       0.012
  -0.18750000  0.18750000  0.18750000       0.012
   0.31250000  0.31250000  0.18750000       0.012
   0.43750000  0.31250000  0.18750000       0.023
  -0.43750000  0.31250000  0.18750000       0.023
  -0.31250000  0.31250000  0.18750000       0.023
  -0.18750000  0.31250000  0.18750000       0.023
   0.43750000  0.43750000  0.18750000       0.012
  -0.43750000  0.43750000  0.18750000       0.023
  -0.31250000  0.43750000  0.18750000       0.023
  -0.18750000  0.43750000  0.18750000       0.023
  -0.43750000 -0.43750000  0.18750000       0.012
  -0.31250000 -0.43750000  0.18750000       0.023
  -0.31250000 -0.31250000  0.18750000       0.012
   0.31250000  0.31250000  0.31250000       0.004
   0.43750000  0.31250000  0.31250000       0.012
  -0.43750000  0.31250000  0.31250000       0.012
  -0.31250000  0.31250000  0.31250000       0.012
   0.43750000  0.43750000  0.31250000       0.012
  -0.43750000  0.43750000  0.31250000       0.023
  -0.31250000  0.43750000  0.31250000       0.023
  -0.43750000 -0.43750000  0.31250000       0.012
   0.43750000  0.43750000  0.43750000       0.004
  -0.43750000  0.43750000  0.43750000       0.012

 position of ions in fractional coordinates (direct lattice)
   0.00000000  0.00000000  0.00000000

 position of ions in cartesian coordinates  (Angst):
   0.00000000  0.00000000  0.00000000

 k-point   1 :   0.0625 0.0625 0.0625  plane waves:     316
 k-point   2 :   0.1875 0.0625 0.0625  plane waves:     311
 k-point   3 :   0.3125 0.0625 0.0625  plane waves:     305
 k-point   4 :   0.4375 0.0625 0.0625  plane waves:     304
 k-point   5 :  -0.4375 0.0625 0.0625  plane waves:     305
 k-point   6 :  -0.3125 0.0625 0.0625  plane waves:     302
 k-point   7 :  -0.1875 0.0625 0.0625  plane waves:     304
 k-point   8 :  -0.0625 0.0625 0.0625  plane waves:     309
 k-point   9 :   0.1875 0.1875 0.0625  plane waves:     305
 k-point  10 :   0.3125 0.1875 0.0625  plane waves:     303
 k-point  11 :   0.4375 0.1875 0.0625  plane waves:     308
 k-point  12 :  -0.4375 0.1875 0.0625  plane waves:     304
 k-point  13 :  -0.3125 0.1875 0.0625  plane waves:     305
 k-point  14 :  -0.1875 0.1875 0.0625  plane waves:     305
 k-point  15 :  -0.0625 0.1875 0.0625  plane waves:     308
 k-point  16 :   0.3125 0.3125 0.0625  plane waves:     310
 k-point  17 :   0.4375 0.3125 0.0625  plane waves:     310
 k-point  18 :  -0.4375 0.3125 0.0625  plane waves:     302
 k-point  19 :  -0.3125 0.3125 0.0625  plane waves:     300
 k-point  20 :  -0.1875 0.3125 0.0625  plane waves:     305
 k-point  21 :  -0.0625 0.3125 0.0625  plane waves:     303
 k-point  22 :   0.4375 0.4375 0.0625  plane waves:     310
 k-point  23 :  -0.4375 0.4375 0.0625  plane waves:     305
 k-point  24 :  -0.3125 0.4375 0.0625  plane waves:     297
 k-point  25 :  -0.1875 0.4375 0.0625  plane waves:     303
 k-point  26 :  -0.0625 0.4375 0.0625  plane waves:     304
 k-point  27 :  -0.4375-0.4375 0.0625  plane waves:     304
 k-point  28 :  -0.3125-0.4375 0.0625  plane waves:     308
 k-point  29 :  -0.1875-0.4375 0.0625  plane waves:     306
 k-point  30 :  -0.3125-0.3125 0.0625  plane waves:     311
 k-point  31 :  -0.1875-0.3125 0.0625  plane waves:     306
 k-point  32 :  -0.1875-0.1875 0.0625  plane waves:     304
 k-point  33 :   0.1875 0.1875 0.1875  plane waves:     311
 k-point  34 :   0.3125 0.1875 0.1875  plane waves:     307
 k-point  35 :   0.4375 0.1875 0.1875  plane waves:     305
 k-point  36 :  -0.4375 0.1875 0.1875  plane waves:     301
 k-point  37 :  -0.3125 0.1875 0.1875  plane waves:     306
 k-point  38 :  -0.1875 0.1875 0.1875  plane waves:     309
 k-point  39 :   0.3125 0.3125 0.1875  plane waves:     302
 k-point  40 :   0.4375 0.3125 0.1875  plane waves:     307
 k-point  41 :  -0.4375 0.3125 0.1875  plane waves:     302
 k-point  42 :  -0.3125 0.3125 0.1875  plane waves:     301
 k-point  43 :  -0.1875 0.3125 0.1875  plane waves:     306
 k-point  44 :   0.4375 0.4375 0.1875  plane waves:     307
 k-point  45 :  -0.4375 0.4375 0.1875  plane waves:     302
 k-point  46 :  -0.3125 0.4375 0.1875  plane waves:     301
 k-point  47 :  -0.1875 0.4375 0.1875  plane waves:     302
 k-point  48 :  -0.4375-0.4375 0.1875  plane waves:     305
 k-point  49 :  -0.3125-0.4375 0.1875  plane waves:     302
 k-point  50 :  -0.3125-0.3125 0.1875  plane waves:     303
 k-point  51 :   0.3125 0.3125 0.3125  plane waves:     302
 k-point  52 :   0.4375 0.3125 0.3125  plane waves:     302
 k-point  53 :  -0.4375 0.3125 0.3125  plane waves:     299
 k-point  54 :  -0.3125 0.3125 0.3125  plane waves:     300
 k-point  55 :   0.4375 0.4375 0.3125  plane waves:     305
 k-point  56 :  -0.4375 0.4375 0.3125  plane waves:     303
 k-point  57 :  -0.3125 0.4375 0.3125  plane waves:     301
 k-point  58 :  -0.4375-0.4375 0.3125  plane waves:     302
 k-point  59 :   0.4375 0.4375 0.4375  plane waves:     308
 k-point  60 :  -0.4375 0.4375 0.4375  plane waves:     300

 maximum and minimum number of plane-waves per node :       316      297

 maximum number of plane-waves:       316
 maximum index in each direction:
   IXMAX=    5   IYMAX=    5   IZMAX=    4
   IXMIN=   -5   IYMIN=   -5   IZMIN=   -5

 serial   3D FFT for wavefunctions
 parallel 3D FFT for charge:
    minimum data exchange during FFTs selected (reduces bandwidth)

 Broyden mixing: mesh for mixing (old mesh)
   NGX =  9   NGY =  9   NGZ =  9
  (NGX  = 40   NGY  = 40   NGZ  = 40)
  gives a total of    729 points

 initial charge density was supplied:
 charge density of overlapping atoms calculated
 number of electron      16.0000000 magnetization
 keeping initial charge density in first step

 Maximum index for augmentation-charges          868 (set IRDMAX)

 First call to EWALD:  gamma=   0.714
 Maximum number of real-space cells 3x 3x 3
 Maximum number of reciprocal cells 3x 3x 3

--------------------------------------- Iteration      1(   1)  ---------------------------------------

 eigenvalue-minimisations  :  3168
 total energy-change (2. order) : 0.1803652E+02  (-0.1170044E+04)
 number of electron      16.0000000 magnetization
 augmentation part       16.0000000 magnetization

 Free energy of the ion-electron system (eV)
  alpha Z        PSCENC =       156.91311333
  Ewald energy   TEWEN  =     -2144.84590610
  -Hartree energ DENC   =      -397.82488157
  -exchange      EXHF   =         0.00000000
  -V(xc)+E(xc)   XCENC  =        63.81680431
  PAW double counting   =      2065.75261637    -2030.83594803
  entropy T*S    EENTRO =        -0.00109660
  eigenvalues    EBANDS =      -123.13319460
  atomic energy  EATOM  =      2428.19501064
  Solvation  Ediel_sol  =         0.00000000
  free energy    TOTEN  =        18.03651777 eV

  energy without entropy =       18.03761436  energy(sigma->0) =       18.03706606

[...]

 eigenvalue-minimisations  :  3840
 total energy-change (2. order) :-0.2443075E+02  (-0.2426416E+02)
 number of electron      16.0000000 magnetization
 augmentation part       16.0000000 magnetization

[...]

 Broyden mixing:
  rms(total) = 0.14940E+01    rms(broyden)= 0.14939E+01
  rms(prec ) = 0.20516E+01
  weight for this iteration     100.00

[...]

 eigenvalues of (default mixing * dielectric matrix)
  average eigenvalue GAMMA=   1.4492
  1.4492

[...]

 eigenvalue-minimisations  :  3840
 total energy-change (2. order) :-0.5587431E-05  (-0.5083109E-06)
 number of electron      16.0000003 magnetization
 augmentation part        4.1118160 magnetization

 Broyden mixing:
  rms(total) = 0.60416E-03    rms(broyden)= 0.60395E-03
  rms(prec ) = 0.60861E-03
  weight for this iteration     100.00

 eigenvalues of (default mixing * dielectric matrix)
  average eigenvalue GAMMA=   1.7037
  2.7127  2.3482  0.9744  1.2416  1.2416

[...]

--------------------------------------- Iteration      1(  11)  ---------------------------------------

 eigenvalue-minimisations  :  2016
 total energy-change (2. order) : 0.5294032E-07  (-0.5292229E-09)
 number of electron      16.0000003 magnetization
 augmentation part        4.1118160 magnetization

 Free energy of the ion-electron system (eV)
  alpha Z        PSCENC =       156.91311333
  Ewald energy   TEWEN  =     -2144.84590610
  -Hartree energ DENC   =      -378.35093376
  -exchange      EXHF   =         0.00000000
  -V(xc)+E(xc)   XCENC  =        62.95437711
  PAW double counting   =      2349.92909160    -2317.69728838
  entropy T*S    EENTRO =        -0.00352783
  eigenvalues    EBANDS =      -163.16432540
  atomic energy  EATOM  =      2428.19501064
  Solvation  Ediel_sol  =         0.00000000
  free energy    TOTEN  =        -6.07038878 eV

  energy without entropy =       -6.06686095  energy(sigma->0) =       -6.06862487

 average (electrostatic) potential at core
  the test charge radii are     0.9952
  (the norm of the test charge is              1.0000)
       1 -88.9780

 E-fermi :  11.7496     XC(G=0): -13.9168     alpha+bet :-17.1560

 Fermi energy:        11.7495605866

 k-point     1 :       0.0625    0.0625    0.0625
  band No.  band energies     occupation
      1     -40.7288      2.00000
      2     -40.7144      2.00000
      3     -40.7144      2.00000
      4       1.8521      2.00000
      5       8.0048      2.00000
      6       8.1343      2.00000
      7       8.1343      2.00000
      8      10.1530      2.00000
      9      10.1530      2.00000
     10      26.6820      0.00000
     11      30.5071      0.00000
     12      31.5594      0.00000
     13      31.5594      0.00000
     14      37.5210      0.00000
     15      41.5813      0.00000
     16      42.5096      0.00000
     17      42.5096      0.00000
     18      46.1114      0.00000
     19      46.1114      0.00000
     20      47.3364      0.00000
     21      52.4826      0.00000
     22      52.8020      0.00000
     23      52.8020      0.00000
     24      60.2556      0.00000

[...]

 k-point    60 :      -0.4375    0.4375    0.4375
  band No.  band energies     occupation
      1     -41.1342      2.00000
      2     -40.8237      2.00000
      3     -40.7862      2.00000
      4       5.0664      2.00000
      5       7.6613      2.00000
      6       8.4001      2.00000
      7       9.5148      2.00000
      8      11.6302      1.99927
      9      14.0704      0.00000
     10      17.5364      0.00000
     11      26.6931      0.00000
     12      29.0268      0.00000
     13      30.4273      0.00000
     14      38.9370      0.00000
     15      39.5237      0.00000
     16      42.4169      0.00000
     17      46.1465      0.00000
     18      47.2736      0.00000
     19      47.4054      0.00000
     20      52.2757      0.00000
     21      52.5018      0.00000
     22      52.9807      0.00000
     23      57.6837      0.00000
     24      58.2606      0.00000

 soft charge-density along one line, spin component           1
         0         1         2         3         4         5         6         7         8         9
 total charge-density along one line

------------------------ aborting loop because EDIFF is reached ----------------------------------------

  FORCE on cell =-STRESS in cart. coord.  units (eV):
  Direction    XX          YY          ZZ          XY          YZ          ZX
  Alpha Z   156.91311   156.91311   156.91311
  Ewald    -714.94866  -714.94866  -714.94866    -0.00000     0.00000     0.00000
  Hartree   126.11634   126.11634   126.11634     0.00000     0.00000     0.00000
  E(xc)     -85.52142   -85.52142   -85.52142     0.00000     0.00000     0.00000
  Local     125.02622   125.02622   125.02622     0.00000     0.00000     0.00000
  n-local   -29.75830   -27.06826   -32.65067     3.25756    -3.72783    -0.37199
  augment    73.33374    73.33374    73.33374     0.00000     0.00000     0.00000
  Kinetic   348.66091   353.00833   346.06860     4.38424    -5.03000    -0.21488
  Fock        0.00000     0.00000     0.00000     0.00000     0.00000     0.00000
  Total       0.33954     0.33954     0.33954     0.00000     0.00000     0.00000
  in kB      35.57689    35.57689    35.57689     0.00000     0.00000     0.00000

 VOLUME and BASIS-vectors are now :
  energy-cutoff  :      425.00
  volume of cell :       15.29
      direct lattice vectors                 reciprocal lattice vectors
     0.000000000  1.970000000  1.970000000    -0.253807107  0.253807107  0.253807107
     1.970000000  0.000000000  1.970000000     0.253807107 -0.253807107  0.253807107
     1.970000000  1.970000000  0.000000000     0.253807107  0.253807107 -0.253807107

  length of vectors
     2.786000718  2.786000718  2.786000718     0.439606804  0.439606804  0.439606804

 FORCES acting on ions
    electron-ion (+dipol)            ewald-force                    non-local-force                 convergence-correction
   -.637E-14 -.811E-14 -.770E-15   -.456E-14 -.897E-14 -.116E-13   0.155E-24 0.000E+00 0.000E+00   -.408E-13 -.755E-13 -.385E-13
   -.637E-14 -.811E-14 -.770E-15   -.456E-14 -.897E-14 -.116E-13   0.155E-24 0.000E+00 0.000E+00   -.408E-13 -.755E-13 -.385E-13

 POSITION                                       TOTAL-FORCE (eV/Angst)
      0.00000      0.00000      0.00000         0.000000     -0.000000      0.000000
    total drift:                               -0.000000     -0.000000     -0.000000

  FREE ENERGIE OF THE ION-ELECTRON SYSTEM (eV)
  free  energy   TOTEN  =        -6.07038878 eV

  energy  without entropy=       -6.06686095  energy(sigma->0) =       -6.06862487