 vasp.6.3.2 27Jun22 (build Aug 12 2022 00:53:59) complex

 executed on               tv2STD date 2024.12.02  16:49:11

 INCAR:
   SYSTEM = Co fcc
   NWRITE = 2    write-flag
   ISTART = 0    job   : 0-new, 1-cont, 2-samecut
   ICHARG = 2    charge: 0-wave, 1-file, 2-atom, >10-const
   INIWAV = 1    electr: 0-lowe 1-rand  2-diag
   ENCUT = 475     energy cutoff in eV
   PREC = Accurate      normal | accurate
   ADDGRID = .FALSE.  (use fine grid)
   NELM = 100     number of ELM steps
   EDIFF = 1E-06    energy stopping-criterion for ELM
   LREAL = .FALSE.      real-space projection (.FALSE., .TRUE., On, Auto)
   ALGO = Normal     Normal, Fast, Very_Fast
   LWAVE = .FALSE.
   LCHARG = .FALSE.
   NSW = 0       max number of geometry steps
   IBRION = -1     ionic relax: 0-MD, 1-quasi-Newton, 2-CG, 3-Damped MD
   EDIFFG = -0.02  force (eV/A) stopping-criterion for geometry steps
   ISIF = 2     (1:force\=y stress\=trace only ions\=y shape\=n volume\=n)
   ISYM = 1     (1-use symmetry, 0-no symmetry)
   ISMEAR = 1     (-1-Fermi, 1-Methfessel/Paxton)
   SIGMA = 0.2   broadening in eV
   NPAR = 4
   ISPIN = 2
   MAGMOM = 2*3

 POTCAR:    PAW_PBE Co 02Aug2007
 POTCAR:    PAW_PBE Co 02Aug2007
   VRHFIN =Co: d8 s1

   TITEL  = PAW_PBE Co 02Aug2007
   POMASS =   58.933; ZVAL   =    9.000    mass and valenz
   ENMAX  =  267.968; ENMIN  =  200.976 eV

  PAW_PBE Co 02Aug2007                  :

 POSCAR: Co hcp
  positions in direct lattice
 exchange correlation table for  LEXCH =        8
   RHO(1)=    0.500       N(1)  =     2000
   RHO(2)=  100.500       N(2)  =     4000

 ion  position               nearest neighbor table
   1  0.333  0.667  0.250-   2 2.47   2 2.47   2 2.47   2 2.47   2 2.47   2 2.47
   2  0.667  0.333  0.750-   1 2.47   1 2.47   1 2.47   1 2.47   1 2.47   1 2.47

  LATTYP: Found a hexagonal cell.
 ALAT       =     2.4719999032
 C/A-ratio  =     1.6266764715

  Lattice vectors:

 A1 = (   1.2359999516,  -2.1408147143,   0.0000000000)
 A2 = (   1.2359999516,   2.1408147143,   0.0000000000)
 A3 = (   0.0000000000,   0.0000000000,   4.0211440800)

Analysis of symmetry for initial positions (statically):
 Subroutine PRICEL returns:
 Original cell was already a primitive cell.

 Routine SETGRP: Setting up the symmetry group for a
 hexagonal supercell.

 Subroutine GETGRP returns: Found 24 space group operations
 (whereof 12 operations were pure point group operations)
 out of a pool of 24 trial point group operations.

The static configuration has the point symmetry D_3d.
 The point group associated with its full space group is D_6h.

Analysis of symmetry for dynamics (positions and initial velocities):
 Subroutine PRICEL returns:
 Original cell was already a primitive cell.

[...]

The dynamic configuration has the point symmetry D_3d.
 The point group associated with its full space group is D_6h.

Analysis of structural, dynamic, and magnetic symmetry:
 Subroutine PRICEL returns:
 Original cell was already a primitive cell.

 Routine SETGRP: Setting up the symmetry group for a
 hexagonal supercell.

 Subroutine GETGRP returns: Found 24 space group operations
 (whereof 12 operations were pure point group operations)
 out of a pool of 24 trial point group operations.

The overall configuration has the point symmetry D_3d.
 The point group associated with its full space group is D_6h.

 Subroutine INISYM returns: Found 24 space group operations
 (whereof 12 operations are pure point group operations),
 and found     1 'primitive' translations

                                     Primitive cell

  volume of cell :      21.2803

  direct lattice vectors                    reciprocal lattice vectors
     1.235999952 -2.140814714  0.000000000     0.404530760 -0.233555943  0.000000000
     1.235999952  2.140814714  0.000000000     0.404530760  0.233555943  0.000000000
     0.000000000  0.000000000  4.021144080     0.000000000  0.000000000  0.248685444

  length of vectors
     2.471999903  2.471999903  4.021144080     0.467111887  0.467111887  0.248685444

  position of ions in fractional coordinates (direct lattice)
     0.333333333  0.666666667  0.250000000
     0.666666667  0.333333333  0.750000000

  ion indices of the primitive-cell ions
   primitive index   ion index
                 1           1
                 2           2

 KPOINTS: Automatic mesh

Automatic generation of k-mesh.
 Grid dimensions read from file:
 generate k-points for:   10   10    8

 Generating k-lattice:

  Cartesian coordinates                     Fractional coordinates (reciprocal lattice)
     0.040453076 -0.023355594  0.000000000     0.100000000  0.000000000  0.000000000
     0.040453076  0.023355594  0.000000000     0.000000000  0.100000000  0.000000000
     0.000000000  0.000000000  0.031085680     0.000000000  0.000000000  0.125000000

  Length of vectors
     0.046711189  0.046711189  0.031085680

  Shift w.r.t. Gamma in fractional coordinates (k-lattice)
     0.000000000  0.000000000  0.000000000

 Subroutine IBZKPT returns following result:

 Found     70 irreducible k-points:

 Following reciprocal coordinates:
            Coordinates               Weight
  0.000000  0.000000  0.000000      1.000000
  0.100000 -0.000000  0.000000      6.000000
  0.200000 -0.000000  0.000000      6.000000
  0.300000  0.000000  0.000000      6.000000
  0.400000  0.000000  0.000000      6.000000
  0.500000  0.000000  0.000000      3.000000
  0.100000  0.100000  0.000000      6.000000
  0.200000  0.100000  0.000000     12.000000
  0.300000  0.100000  0.000000     12.000000
  0.400000  0.100000  0.000000     12.000000
  0.200000  0.200000  0.000000      6.000000
  0.300000  0.200000  0.000000     12.000000
  0.400000  0.200000  0.000000      6.000000
  0.300000  0.300000  0.000000      6.000000
  0.000000  0.000000  0.125000      2.000000
  0.100000 -0.000000  0.125000     12.000000
  0.200000 -0.000000  0.125000     12.000000
  0.300000  0.000000  0.125000     12.000000
  0.400000  0.000000  0.125000     12.000000
  0.500000  0.000000  0.125000      6.000000
  0.100000  0.100000  0.125000     12.000000
  0.200000  0.100000  0.125000     24.000000
  0.300000  0.100000  0.125000     24.000000
  0.400000  0.100000  0.125000     24.000000
  0.200000  0.200000  0.125000     12.000000
  0.300000  0.200000  0.125000     24.000000
  0.400000  0.200000  0.125000     12.000000
  0.300000  0.300000  0.125000     12.000000
  0.000000  0.000000  0.250000      2.000000
  0.100000 -0.000000  0.250000     12.000000
  0.200000 -0.000000  0.250000     12.000000
  0.300000  0.000000  0.250000     12.000000
  0.400000  0.000000  0.250000     12.000000
  0.500000  0.000000  0.250000      6.000000
  0.100000  0.100000  0.250000     12.000000
  0.200000  0.100000  0.250000     24.000000
  0.300000  0.100000  0.250000     24.000000
  0.400000  0.100000  0.250000     24.000000
  0.200000  0.200000  0.250000     12.000000
  0.300000  0.200000  0.250000     24.000000
  0.400000  0.200000  0.250000     12.000000
  0.300000  0.300000  0.250000     12.000000
  0.000000  0.000000  0.375000      2.000000
  0.100000 -0.000000  0.375000     12.000000
  0.200000 -0.000000  0.375000     12.000000
  0.300000  0.000000  0.375000     12.000000
  0.400000  0.000000  0.375000     12.000000
  0.500000  0.000000  0.375000      6.000000
  0.100000  0.100000  0.375000     12.000000
  0.200000  0.100000  0.375000     24.000000
  0.300000  0.100000  0.375000     24.000000
  0.400000  0.100000  0.375000     24.000000
  0.200000  0.200000  0.375000     12.000000
  0.300000  0.200000  0.375000     24.000000
  0.400000  0.200000  0.375000     12.000000
  0.300000  0.300000  0.375000     12.000000
  0.000000  0.000000  0.500000      1.000000
  0.100000 -0.000000  0.500000      6.000000
  0.200000 -0.000000  0.500000      6.000000
  0.300000  0.000000  0.500000      6.000000
  0.400000  0.000000  0.500000      6.000000
  0.500000  0.000000  0.500000      3.000000
  0.100000  0.100000  0.500000      6.000000
  0.200000  0.100000  0.500000     12.000000
  0.300000  0.100000  0.500000     12.000000
  0.400000  0.100000  0.500000     12.000000
  0.200000  0.200000  0.500000      6.000000
  0.300000  0.200000  0.500000     12.000000
  0.400000  0.200000  0.500000      6.000000
  0.300000  0.300000  0.500000      6.000000

 Following cartesian coordinates:
            Coordinates               Weight
  0.000000  0.000000  0.000000      1.000000
  0.040453 -0.023356  0.000000      6.000000
  0.080906 -0.046711  0.000000      6.000000
  0.121359 -0.070067  0.000000      6.000000
  0.161812 -0.093422  0.000000      6.000000
  0.202265 -0.116778  0.000000      3.000000
  0.080906  0.000000  0.000000      6.000000
  0.121359 -0.023356  0.000000     12.000000
  0.161812 -0.046711  0.000000     12.000000
  0.202265 -0.070067  0.000000     12.000000
  0.161812  0.000000  0.000000      6.000000
  0.202265 -0.023356  0.000000     12.000000
  0.242718 -0.046711  0.000000      6.000000
  0.242718  0.000000  0.000000      6.000000
  0.000000  0.000000  0.031086      2.000000
  0.040453 -0.023356  0.031086     12.000000
  0.080906 -0.046711  0.031086     12.000000
  0.121359 -0.070067  0.031086     12.000000
  0.161812 -0.093422  0.031086     12.000000
  0.202265 -0.116778  0.031086      6.000000
  0.080906  0.000000  0.031086     12.000000
  0.121359 -0.023356  0.031086     24.000000
  0.161812 -0.046711  0.031086     24.000000
  0.202265 -0.070067  0.031086     24.000000
  0.161812  0.000000  0.031086     12.000000
  0.202265 -0.023356  0.031086     24.000000
  0.242718 -0.046711  0.031086     12.000000
  0.242718  0.000000  0.031086     12.000000
  0.000000  0.000000  0.062171      2.000000
  0.040453 -0.023356  0.062171     12.000000
  0.080906 -0.046711  0.062171     12.000000
  0.121359 -0.070067  0.062171     12.000000
  0.161812 -0.093422  0.062171     12.000000
  0.202265 -0.116778  0.062171      6.000000
  0.080906  0.000000  0.062171     12.000000
  0.121359 -0.023356  0.062171     24.000000
  0.161812 -0.046711  0.062171     24.000000
  0.202265 -0.070067  0.062171     24.000000
  0.161812  0.000000  0.062171     12.000000
  0.202265 -0.023356  0.062171     24.000000
  0.242718 -0.046711  0.062171     12.000000
  0.242718  0.000000  0.062171     12.000000
  0.000000  0.000000  0.093257      2.000000
  0.040453 -0.023356  0.093257     12.000000
  0.080906 -0.046711  0.093257     12.000000
  0.121359 -0.070067  0.093257     12.000000
  0.161812 -0.093422  0.093257     12.000000
  0.202265 -0.116778  0.093257      6.000000
  0.080906  0.000000  0.093257     12.000000
  0.121359 -0.023356  0.093257     24.000000
  0.161812 -0.046711  0.093257     24.000000
  0.202265 -0.070067  0.093257     24.000000
  0.161812  0.000000  0.093257     12.000000
  0.202265 -0.023356  0.093257     24.000000
  0.242718 -0.046711  0.093257     12.000000
  0.242718  0.000000  0.093257     12.000000
  0.000000  0.000000  0.124343      1.000000
  0.040453 -0.023356  0.124343      6.000000
  0.080906 -0.046711  0.124343      6.000000
  0.121359 -0.070067  0.124343      6.000000
  0.161812 -0.093422  0.124343      6.000000
  0.202265 -0.116778  0.124343      3.000000
[...]
   0.30000000  0.20000000  0.00000000       0.015
   0.40000000  0.20000000  0.00000000       0.007
   0.30000000  0.30000000  0.00000000       0.007
   0.00000000  0.00000000  0.12500000       0.003
   0.10000000 -0.00000000  0.12500000       0.015
   0.20000000 -0.00000000  0.12500000       0.015
   0.30000000  0.00000000  0.12500000       0.015
   0.40000000  0.00000000  0.12500000       0.015
   0.50000000  0.00000000  0.12500000       0.007
   0.10000000  0.10000000  0.12500000       0.015
   0.20000000  0.10000000  0.12500000       0.030
   0.30000000  0.10000000  0.12500000       0.030
   0.40000000  0.10000000  0.12500000       0.030
   0.20000000  0.20000000  0.12500000       0.015
   0.30000000  0.20000000  0.12500000       0.030
   0.40000000  0.20000000  0.12500000       0.015
   0.30000000  0.30000000  0.12500000       0.015
   0.00000000  0.00000000  0.25000000       0.003
   0.10000000 -0.00000000  0.25000000       0.015
   0.20000000 -0.00000000  0.25000000       0.015
   0.30000000  0.00000000  0.25000000       0.015
   0.40000000  0.00000000  0.25000000       0.015
   0.50000000  0.00000000  0.25000000       0.007
   0.10000000  0.10000000  0.25000000       0.015
   0.20000000  0.10000000  0.25000000       0.030
   0.30000000  0.10000000  0.25000000       0.030
   0.40000000  0.10000000  0.25000000       0.030
   0.20000000  0.20000000  0.25000000       0.015
   0.30000000  0.20000000  0.25000000       0.030
   0.40000000  0.20000000  0.25000000       0.015
   0.30000000  0.30000000  0.25000000       0.015
   0.00000000  0.00000000  0.37500000       0.003
   0.10000000 -0.00000000  0.37500000       0.015
   0.20000000 -0.00000000  0.37500000       0.015
   0.30000000  0.00000000  0.37500000       0.015
   0.40000000  0.00000000  0.37500000       0.015
   0.50000000  0.00000000  0.37500000       0.007
   0.10000000  0.10000000  0.37500000       0.015
   0.20000000  0.10000000  0.37500000       0.030
   0.30000000  0.10000000  0.37500000       0.030
   0.40000000  0.10000000  0.37500000       0.030
   0.20000000  0.20000000  0.37500000       0.015
   0.30000000  0.20000000  0.37500000       0.030
   0.40000000  0.20000000  0.37500000       0.015
   0.30000000  0.30000000  0.37500000       0.015
   0.00000000  0.00000000  0.50000000       0.001
   0.10000000 -0.00000000  0.50000000       0.007
   0.20000000 -0.00000000  0.50000000       0.007
   0.30000000  0.00000000  0.50000000       0.007
   0.40000000  0.00000000  0.50000000       0.007
   0.50000000  0.00000000  0.50000000       0.004
   0.10000000  0.10000000  0.50000000       0.007
   0.20000000  0.10000000  0.50000000       0.015
   0.30000000  0.10000000  0.50000000       0.015
   0.40000000  0.10000000  0.50000000       0.015
   0.20000000  0.20000000  0.50000000       0.007
   0.30000000  0.20000000  0.50000000       0.015
   0.40000000  0.20000000  0.50000000       0.007
   0.30000000  0.30000000  0.50000000       0.007

 position of ions in fractional coordinates (direct lattice)
   0.33333333  0.66666667  0.25000000
   0.66666667  0.33333333  0.75000000

 position of ions in cartesian coordinates  (Angst):
   1.23599995  0.71360490  1.00528602
   1.23599995 -0.71360490  3.01585806

 k-point   1 :   0.0000 0.0000 0.0000  plane waves:     525
 k-point   2 :   0.1000-0.0000 0.0000  plane waves:     511
 k-point   3 :   0.2000-0.0000 0.0000  plane waves:     502
 k-point   4 :   0.3000 0.0000 0.0000  plane waves:     492
 k-point   5 :   0.4000 0.0000 0.0000  plane waves:     488
 k-point   6 :   0.5000 0.0000 0.0000  plane waves:     488
 k-point   7 :   0.1000 0.1000 0.0000  plane waves:     511
 k-point   8 :   0.2000 0.1000 0.0000  plane waves:     502
 k-point   9 :   0.3000 0.1000 0.0000  plane waves:     503
 k-point  10 :   0.4000 0.1000 0.0000  plane waves:     496
 k-point  11 :   0.2000 0.2000 0.0000  plane waves:     504
 k-point  12 :   0.3000 0.2000 0.0000  plane waves:     498
 k-point  13 :   0.4000 0.2000 0.0000  plane waves:     498
 k-point  14 :   0.3000 0.3000 0.0000  plane waves:     496
 k-point  15 :   0.0000 0.0000 0.1250  plane waves:     531
 k-point  16 :   0.1000-0.0000 0.1250  plane waves:     515
 k-point  17 :   0.2000-0.0000 0.1250  plane waves:     509
 k-point  18 :   0.3000 0.0000 0.1250  plane waves:     497
 k-point  19 :   0.4000 0.0000 0.1250  plane waves:     490
 k-point  20 :   0.5000 0.0000 0.1250  plane waves:     488
 k-point  21 :   0.1000 0.1000 0.1250  plane waves:     512
 k-point  22 :   0.2000 0.1000 0.1250  plane waves:     500
 k-point  23 :   0.3000 0.1000 0.1250  plane waves:     495
 k-point  24 :   0.4000 0.1000 0.1250  plane waves:     494
 k-point  25 :   0.2000 0.2000 0.1250  plane waves:     497
 k-point  26 :   0.3000 0.2000 0.1250  plane waves:     499
 k-point  27 :   0.4000 0.2000 0.1250  plane waves:     496
 k-point  28 :   0.3000 0.3000 0.1250  plane waves:     495
 k-point  29 :   0.0000 0.0000 0.2500  plane waves:     518
 k-point  30 :   0.1000-0.0000 0.2500  plane waves:     515
 k-point  31 :   0.2000-0.0000 0.2500  plane waves:     506
 k-point  32 :   0.3000 0.0000 0.2500  plane waves:     495
 k-point  33 :   0.4000 0.0000 0.2500  plane waves:     496
 k-point  34 :   0.5000 0.0000 0.2500  plane waves:     500
 k-point  35 :   0.1000 0.1000 0.2500  plane waves:     510
 k-point  36 :   0.2000 0.1000 0.2500  plane waves:     504
 k-point  37 :   0.3000 0.1000 0.2500  plane waves:     495
 k-point  38 :   0.4000 0.1000 0.2500  plane waves:     495
 k-point  39 :   0.2000 0.2000 0.2500  plane waves:     497
 k-point  40 :   0.3000 0.2000 0.2500  plane waves:     500
 k-point  41 :   0.4000 0.2000 0.2500  plane waves:     497
 k-point  42 :   0.3000 0.3000 0.2500  plane waves:     499
 k-point  43 :   0.0000 0.0000 0.3750  plane waves:     500
 k-point  44 :   0.1000-0.0000 0.3750  plane waves:     508
 k-point  45 :   0.2000-0.0000 0.3750  plane waves:     500
 k-point  46 :   0.3000 0.0000 0.3750  plane waves:     504
 k-point  47 :   0.4000 0.0000 0.3750  plane waves:     496
 k-point  48 :   0.5000 0.0000 0.3750  plane waves:     500
 k-point  49 :   0.1000 0.1000 0.3750  plane waves:     506
 k-point  50 :   0.2000 0.1000 0.3750  plane waves:     499
 k-point  51 :   0.3000 0.1000 0.3750  plane waves:     501
 k-point  52 :   0.4000 0.1000 0.3750  plane waves:     496
 k-point  53 :   0.2000 0.2000 0.3750  plane waves:     508
 k-point  54 :   0.3000 0.2000 0.3750  plane waves:     502
 k-point  55 :   0.4000 0.2000 0.3750  plane waves:     497
 k-point  56 :   0.3000 0.3000 0.3750  plane waves:     499
 k-point  57 :   0.0000 0.0000 0.5000  plane waves:     494
 k-point  58 :   0.1000-0.0000 0.5000  plane waves:     508
 k-point  59 :   0.2000-0.0000 0.5000  plane waves:     504
 k-point  60 :   0.3000 0.0000 0.5000  plane waves:     512
 k-point  61 :   0.4000 0.0000 0.5000  plane waves:     494
 k-point  62 :   0.5000 0.0000 0.5000  plane waves:     504
 k-point  63 :   0.1000 0.1000 0.5000  plane waves:     500
 k-point  64 :   0.2000 0.1000 0.5000  plane waves:     500
 k-point  65 :   0.3000 0.1000 0.5000  plane waves:     498
 k-point  66 :   0.4000 0.1000 0.5000  plane waves:     498
 k-point  67 :   0.2000 0.2000 0.5000  plane waves:     504
 k-point  68 :   0.3000 0.2000 0.5000  plane waves:     500
 k-point  69 :   0.4000 0.2000 0.5000  plane waves:     502
 k-point  70 :   0.3000 0.3000 0.5000  plane waves:     506

 maximum and minimum number of plane-waves per node :        93       76

 maximum number of plane-waves:       531
 maximum index in each direction:
   IXMAX=    4   IYMAX=    4   IZMAX=    7
   IXMIN=   -4   IYMIN=   -4   IZMIN=   -7

 parallel 3D FFT for wavefunctions:
    minimum data exchange during FFTs selected (reduces bandwidth)
 parallel 3D FFT for charge:
    minimum data exchange during FFTs selected (reduces bandwidth)

 Broyden mixing: mesh for mixing (old mesh)
   NGX =  9   NGY =  9   NGZ = 15
  (NGX  = 36   NGY  = 36   NGZ  = 60)
  gives a total of   1215 points

 initial charge density was supplied:
 charge density of overlapping atoms calculated
 number of electron      18.0000000 magnetization       6.0000000
 keeping initial charge density in first step

 Maximum index for augmentation-charges         1142 (set IRDMAX)

 First call to EWALD:  gamma=   0.640
 Maximum number of real-space cells 3x 3x 2
 Maximum number of reciprocal cells 3x 3x 4

--------------------------------------- Iteration      1(   1)  ---------------------------------------

 eigenvalue-minimisations  :  4584
 total energy-change (2. order) : 0.7420520E+02  (-0.8104233E+03)
 number of electron      18.0000000 magnetization       6.0000000
 augmentation part       18.0000000 magnetization       6.0000000

 Free energy of the ion-electron system (eV)
  alpha Z        PSCENC =        79.61870385
  Ewald energy   TEWEN  =     -1531.60263765
  -Hartree energ DENC   =      -295.86427829
  -exchange      EXHF   =         0.00000000
  -V(xc)+E(xc)   XCENC  =        35.75670889
  PAW double counting   =      1439.98163886    -1545.88690193
  entropy T*S    EENTRO =         0.00160229
  eigenvalues    EBANDS =       265.47220719
  atomic energy  EATOM  =      1626.72815342
  Solvation  Ediel_sol  =         0.00000000
  free energy    TOTEN  =        74.20519663 eV

  energy without entropy =       74.20359434  energy(sigma->0) =       74.20466253

[...]

 eigenvalue-minimisations  :  4496
 total energy-change (2. order) :-0.8765063E+02  (-0.8076987E+02)
 number of electron      18.0000000 magnetization       6.0000000
 augmentation part       18.0000000 magnetization       6.0000000

[...]

 Broyden mixing:
  rms(total) = 0.16513E+01    rms(broyden)= 0.16513E+01
  rms(prec ) = 0.27132E+01
  weight for this iteration     100.00

[...]

 eigenvalues of (default mixing * dielectric matrix)
  average eigenvalue GAMMA=   0.8928
  0.8928

[...]

 eigenvalue-minimisations  :  6632
 total energy-change (2. order) :-0.2207994E-04  (-0.8849402E-05)
 number of electron      17.9999990 magnetization       3.3215877
 augmentation part       10.2461678 magnetization       2.9753653

[...]

 Broyden mixing:
  rms(total) = 0.14529E-02    rms(broyden)= 0.14529E-02
  rms(prec ) = 0.22714E-02
  weight for this iteration     100.00

 eigenvalues of (default mixing * dielectric matrix)
  average eigenvalue GAMMA=   1.2137
  2.3772  1.9508  1.0876  1.0876  0.7104  0.6409  0.6409

[...]

--------------------------------------- Iteration      1(  13)  ---------------------------------------

 eigenvalue-minimisations  :  3064
 total energy-change (2. order) : 0.3426821E-06  (-0.1211518E-06)
 number of electron      17.9999990 magnetization       3.3216030
 augmentation part       10.2462946 magnetization       2.9752485

 Free energy of the ion-electron system (eV)
  alpha Z        PSCENC =        79.61870385
  Ewald energy   TEWEN  =     -1531.60263765
  -Hartree energ DENC   =      -260.41696910
  -exchange      EXHF   =         0.00000000
  -V(xc)+E(xc)   XCENC  =        33.00305561
  PAW double counting   =      1829.36849409    -1935.59422329
  entropy T*S    EENTRO =         0.00029346
  eigenvalues    EBANDS =       144.83128174
  atomic energy  EATOM  =      1626.72815342
  Solvation  Ediel_sol  =         0.00000000
  free energy    TOTEN  =       -14.06384788 eV

  energy without entropy =      -14.06414133  energy(sigma->0) =      -14.06394569

 average (electrostatic) potential at core
  the test charge radii are     1.0452
  (the norm of the test charge is              1.0000)
       1 -78.0391       2 -78.0391

 E-fermi :  10.4896     XC(G=0): -13.5205     alpha+bet :-18.0772

 Fermi energy:        10.4895883485

 spin component 1

 k-point     1 :       0.0000    0.0000    0.0000
  band No.  band energies     occupation
      1       1.5014      1.00000
      2       5.2812      1.00000
      3       7.8270      1.00000
      4       7.8847      1.00000
      5       7.8847      1.00000
      6       8.1988      1.00000
      7       8.1988      1.00000
      8       8.5753      1.00000
      9       8.5753      1.00000
     10       9.6832      1.00000
     11       9.6832      1.00000
     12      10.3737      0.91058
     13      16.9498      0.00000
     14      32.7487      0.00000
     15      35.5480      0.00000
     16      35.5482      0.00000

[...]

 k-point    70 :       0.3000    0.3000    0.5000
  band No.  band energies     occupation
      1       6.3757      1.00000
      2       6.3757      1.00000
      3       6.9352      1.00000
      4       6.9352      1.00000
      5       7.5304      1.00000
      6       7.5304      1.00000
      7       8.5974      1.00000
      8       8.5974      1.00000
      9       9.7741      1.00000
     10       9.7741      1.00000
     11      15.3498     -0.00000
     12      15.3498     -0.00000
     13      18.8253      0.00000
     14      18.8253      0.00000
     15      20.7262      0.00000
     16      20.7262      0.00000
 Fermi energy:        10.4895883485

 spin component 2

[...]

 k-point    70 :       0.3000    0.3000    0.5000
  band No.  band energies     occupation
      1       7.5774      1.00000
      2       7.5774      1.00000
      3       8.2614      1.00000
      4       8.2614      1.00000
      5       8.7770      1.00000
      6       8.7770      1.00000
      7      10.3475      0.96348
      8      10.3475      0.96348
      9      11.6818     -0.00000
     10      11.6818     -0.00000
     11      16.1205      0.00000
     12      16.1205      0.00000
     13      19.5182      0.00000
     14      19.5182      0.00000
     15      21.3857      0.00000
     16      21.3857      0.00000

 soft charge-density along one line, spin component           1
         0         1         2         3         4         5         6         7         8         9
 total charge-density along one line

 soft charge-density along one line, spin component           2
         0         1         2         3         4         5         6         7         8         9
 total charge-density along one line

------------------------ aborting loop because EDIFF is reached ----------------------------------------

  FORCE on cell =-STRESS in cart. coord.  units (eV):
  Direction    XX          YY          ZZ          XY          YZ          ZX
  Alpha Z    79.61870    79.61870    79.61870
  Ewald    -511.71047  -511.71047  -508.18277     0.00000     0.00000    -0.00000
  Hartree    86.27440    86.27440    87.87294     0.00000     0.00000    -0.00000
  E(xc)     -92.70789   -92.70788   -92.70038     0.00000     0.00000    -0.00000
  Local     -15.53123   -15.53113   -20.17777    -0.00000    -0.00000    -0.00000
  n-local   -14.15899    -3.07516    -8.79248     3.33923    -0.63569     2.38006
  augment   310.87161   310.87153   310.61098    -0.00000    -0.00000    -0.00000
  Kinetic   155.61820   149.42415   152.21724    -3.42001    -0.62054     0.58695
  Fock        0.00000     0.00000     0.00000     0.00000     0.00000     0.00000
  Total       0.71924     0.71924     0.46646    -0.00000     0.00000    -0.00000
  in kB      54.15074    54.15074    35.11951    -0.00000     0.00000    -0.00000

 VOLUME and BASIS-vectors are now :
  energy-cutoff  :      475.00
  volume of cell :       21.28
      direct lattice vectors                 reciprocal lattice vectors
     1.235999952 -2.140814714  0.000000000     0.404530760 -0.233555943  0.000000000
     1.235999952  2.140814714  0.000000000     0.404530760  0.233555943  0.000000000
     0.000000000  0.000000000  4.021144080     0.000000000  0.000000000  0.248685444

  length of vectors
     2.471999903  2.471999903  4.021144080     0.467111887  0.467111887  0.248685444

 FORCES acting on ions
    electron-ion (+dipol)            ewald-force                    non-local-force                 convergence-correction
   0.286E-12 -.862E-07 -.859E-12   -.138E-13 0.239E-11 -.240E-13   -.173E-17 0.278E-16 -.239E-17   -.720E-14 -.230E-08 0.795E-14
   0.707E-12 0.862E-07 -.523E-11   0.114E-13 -.239E-11 0.240E-13   -.104E-16 -.139E-16 0.282E-17   0.229E-14 0.230E-08 -.382E-13
   0.993E-12 0.345E-10 -.609E-11   -.234E-14 0.772E-15 0.000E+00   -.121E-16 0.139E-16 0.434E-18   -.492E-14 -.292E-13 -.303E-13

 POSITION                                       TOTAL-FORCE (eV/Angst)
      1.23600      0.71360      1.00529        -0.000000      0.000000      0.000000
      1.23600     -0.71360      3.01586         0.000000     -0.000000     -0.000000
    total drift:                                0.000000      0.000000     -0.000000

  FREE ENERGIE OF THE ION-ELECTRON SYSTEM (eV)
  free  energy   TOTEN  =       -14.06384788 eV

  energy  without entropy=      -14.06414133  energy(sigma->0) =      -14.06394569