 vasp.6.3.2 27Jun22 (build Aug 12 2022 00:53:59) complex

 executed on               tv2STD date 2024.12.02  16:51:41

 INCAR:
   SYSTEM = Co-hcc
   NWRITE = 2    write-flag
   ISTART = 0    job   : 0-new, 1-cont, 2-samecut
   ICHARG = 2    charge: 0-wave, 1-file, 2-atom, >10-const
   INIWAV = 1    electr: 0-lowe 1-rand  2-diag
   ENCUT = 425.0     energy cutoff in eV
   PREC = Accurate      normal | accurate
   ADDGRID = .FALSE.  (use fine grid)
   NELM = 100     number of ELM steps
   EDIFF = 1E-06    energy stopping-criterion for ELM
   LREAL = .FALSE.      real-space projection (.FALSE., .TRUE., On, Auto)
   ALGO = Normal     Normal, Fast, Very_Fast
   LWAVE = .FALSE.
   LCHARG = .FALSE.
   NSW = 0       max number of geometry steps
   IBRION = -1     ionic relax: 0-MD, 1-quasi-Newton, 2-CG, 3-Damped MD
   EDIFFG = -0.02  force (eV/A) stopping-criterion for geometry steps
   ISIF = 2     (1:force\=y stress\=trace only ions\=y shape\=n volume\=n)
   ISYM = 1     (1-use symmetry, 0-no symmetry)
   ISMEAR = 0     (-1-Fermi, 1-Methfessel/Paxton)
   SIGMA = 0.05   broadening in eV
   LORBIT = 11
   NPAR = 4
   ISPIN = 2
   MAGMOM = 2*3

 POTCAR:    PAW_PBE Co 02Aug2007
 POTCAR:    PAW_PBE Co 02Aug2007
   VRHFIN =Co: d8 s1

   TITEL  = PAW_PBE Co 02Aug2007
   POMASS =   58.933; ZVAL   =    9.000    mass and valenz
   ENMAX  =  267.968; ENMIN  =  200.976 eV

  PAW_PBE Co 02Aug2007                  :

 POSCAR: Co hcp
  positions in direct lattice
 exchange correlation table for  LEXCH =        8
   RHO(1)=    0.500       N(1)  =     2000
   RHO(2)=  100.500       N(2)  =     4000

 ion  position               nearest neighbor table
   1  0.333  0.667  0.250-   2 2.47   2 2.47   2 2.47   2 2.47   2 2.47   2 2.47
   2  0.667  0.333  0.750-   1 2.47   1 2.47   1 2.47   1 2.47   1 2.47   1 2.47

  LATTYP: Found a hexagonal cell.
 ALAT       =     2.4719999032
 C/A-ratio  =     1.6266764715

  Lattice vectors:

 A1 = (   1.2359999516,  -2.1408147143,   0.0000000000)
 A2 = (   1.2359999516,   2.1408147143,   0.0000000000)
 A3 = (   0.0000000000,   0.0000000000,   4.0211440800)

Analysis of symmetry for initial positions (statically):
 Subroutine PRICEL returns:
 Original cell was already a primitive cell.

 Routine SETGRP: Setting up the symmetry group for a
 hexagonal supercell.

 Subroutine GETGRP returns: Found 24 space group operations
 (whereof 12 operations were pure point group operations)
 out of a pool of 24 trial point group operations.

The static configuration has the point symmetry D_3d.
 The point group associated with its full space group is D_6h.

Analysis of symmetry for dynamics (positions and initial velocities):
 Subroutine PRICEL returns:
 Original cell was already a primitive cell.

[...]

The dynamic configuration has the point symmetry D_3d.
 The point group associated with its full space group is D_6h.

Analysis of structural, dynamic, and magnetic symmetry:
 Subroutine PRICEL returns:
 Original cell was already a primitive cell.

 Routine SETGRP: Setting up the symmetry group for a
 hexagonal supercell.

 Subroutine GETGRP returns: Found 24 space group operations
 (whereof 12 operations were pure point group operations)
 out of a pool of 24 trial point group operations.

The overall configuration has the point symmetry D_3d.
 The point group associated with its full space group is D_6h.

 Subroutine INISYM returns: Found 24 space group operations
 (whereof 12 operations are pure point group operations),
 and found     1 'primitive' translations

                                     Primitive cell

  volume of cell :      21.2803

  direct lattice vectors                    reciprocal lattice vectors
     1.235999952 -2.140814714  0.000000000     0.404530760 -0.233555943  0.000000000
     1.235999952  2.140814714  0.000000000     0.404530760  0.233555943  0.000000000
     0.000000000  0.000000000  4.021144080     0.000000000  0.000000000  0.248685444

  length of vectors
     2.471999903  2.471999903  4.021144080     0.467111887  0.467111887  0.248685444

  position of ions in fractional coordinates (direct lattice)
     0.333333333  0.666666667  0.250000000
     0.666666667  0.333333333  0.750000000

  ion indices of the primitive-cell ions
   primitive index   ion index
                 1           1
                 2           2

 KPOINTS: Automatic mesh

Automatic generation of k-mesh.
 Grid dimensions read from file:
 generate k-points for:    6    6    4

 Generating k-lattice:

  Cartesian coordinates                     Fractional coordinates (reciprocal lattice)
     0.067421793 -0.038925991  0.000000000     0.166666667  0.000000000  0.000000000
     0.067421793  0.038925991  0.000000000     0.000000000  0.166666667  0.000000000
     0.000000000  0.000000000  0.062171361     0.000000000  0.000000000  0.250000000

  Length of vectors
     0.077851981  0.077851981  0.062171361

  Shift w.r.t. Gamma in fractional coordinates (k-lattice)
     0.000000000  0.000000000  0.000000000

 Subroutine IBZKPT returns following result:

 Found     21 irreducible k-points:

 Following reciprocal coordinates:
            Coordinates               Weight
  0.000000  0.000000  0.000000      1.000000
  0.166667  0.000000  0.000000      6.000000
  0.333333  0.000000  0.000000      6.000000
  0.500000  0.000000  0.000000      3.000000
  0.166667  0.166667  0.000000      6.000000
  0.333333  0.166667  0.000000     12.000000
  0.333333  0.333333  0.000000      2.000000
  0.000000  0.000000  0.250000      2.000000
  0.166667  0.000000  0.250000     12.000000
  0.333333  0.000000  0.250000     12.000000
  0.500000  0.000000  0.250000      6.000000
  0.166667  0.166667  0.250000     12.000000
  0.333333  0.166667  0.250000     24.000000
  0.333333  0.333333  0.250000      4.000000
  0.000000  0.000000  0.500000      1.000000
  0.166667  0.000000  0.500000      6.000000
  0.333333  0.000000  0.500000      6.000000
  0.500000  0.000000  0.500000      3.000000
  0.166667  0.166667  0.500000      6.000000
  0.333333  0.166667  0.500000     12.000000
  0.333333  0.333333  0.500000      2.000000

 Following cartesian coordinates:
            Coordinates               Weight
  0.000000  0.000000  0.000000      1.000000
  0.067422 -0.038926  0.000000      6.000000
  0.134844 -0.077852  0.000000      6.000000
  0.202265 -0.116778  0.000000      3.000000
  0.134844  0.000000  0.000000      6.000000
  0.202265 -0.038926  0.000000     12.000000
  0.269687  0.000000  0.000000      2.000000
  0.000000  0.000000  0.062171      2.000000
  0.067422 -0.038926  0.062171     12.000000
  0.134844 -0.077852  0.062171     12.000000
  0.202265 -0.116778  0.062171      6.000000
  0.134844  0.000000  0.062171     12.000000
  0.202265 -0.038926  0.062171     24.000000
  0.269687  0.000000  0.062171      4.000000
  0.000000  0.000000  0.124343      1.000000
  0.067422 -0.038926  0.124343      6.000000
  0.134844 -0.077852  0.124343      6.000000
  0.202265 -0.116778  0.124343      3.000000
  0.134844  0.000000  0.124343      6.000000
  0.202265 -0.038926  0.124343     12.000000
  0.269687  0.000000  0.124343      2.000000

 SYSTEM =  Co-hcc
 POSCAR =  Co hcp

 Startparameter for this run:
   NWRITE =      2    write-flag & timer
   PREC   = accura    normal or accurate (medium, high low for compatibility)
   ISTART =      0    job   : 0-new  1-cont  2-samecut
   ICHARG =      2    charge: 1-file 2-atom 10-const
   ISPIN  =      2    spin polarized calculation?
   LNONCOLLINEAR =      F non collinear calculations
   LSORBIT =      F    spin-orbit coupling
   INIWAV =      1    electr: 0-lowe 1-rand  2-diag
   LASPH  =      F    aspherical Exc in radial PAW
 Electronic Relaxation 1
   ENCUT  =  425.0 eV  31.24 Ry    5.59 a.u.   4.16  4.16  6.76*2*pi/ulx,y,z
   ENINI  =  425.0     initial cutoff
   ENAUG  =  477.8 eV  augmentation charge cutoff
   NELM   =    100;   NELMIN=  2; NELMDL= -5     # of ELM steps
   EDIFF  = 0.1E-05   stopping-criterion for ELM
   LREAL  =      F    real-space projection
   NLSPLINE    = F    spline interpolate recip. space projectors
   LCOMPAT=      F    compatible to vasp.4.4
   GGA_COMPAT  = T    GGA compatible to vasp.4.4-vasp.4.6
   LMAXPAW     = -100 max onsite density
   LMAXMIX     =    2 max onsite mixed and CHGCAR
   VOSKOWN=      0    Vosko Wilk Nusair interpolation
   ROPT   =    0.00000
 Ionic relaxation
   EDIFFG = -.2E-01   stopping-criterion for IOM
   NSW    =      0    number of steps for IOM
   NBLOCK =      1;   KBLOCK =      1    inner block; outer block
   IBRION =     -1    ionic relax: 0-MD 1-quasi-New 2-CG
   NFREE  =      0    steps in history (QN), initial steepest desc. (CG)
   ISIF   =      2    stress and relaxation
   IWAVPR =     10    prediction:  0-non 1-charg 2-wave 3-comb
   ISYM   =      1    0-nonsym 1-usesym 2-fastsym
   LCORR  =      T    Harris-Foulkes like correction to forces

   POTIM  = 0.5000    time-step for ionic-motion
   TEIN   =    0.0    initial temperature
   TEBEG  =    0.0;   TEEND  =   0.0 temperature during run
   SMASS  =  -3.00    Nose mass-parameter (am)
   estimated Nose-frequenzy (Omega)   =  0.10E-29 period in steps = 0.13E+47 mass=  -0.140E-27a.u.
   SCALEE = 1.0000    scale energy and forces
   NPACO  =    256;   APACO  = 10.0  distance and # of slots for P.C.
   PSTRESS=    0.0 pullay stress

  Mass of Ions in am
   POMASS =  58.93
  Ionic Valenz
   ZVAL   =   9.00
  Atomic Wigner-Seitz radii
  virtual crystal weights
   VCA    =   1.00
   NELECT =      18.0000    total number of electrons
   NUPDOWN=      -1.0000    fix difference up-down

 DOS related values:
   EMIN   =  10.00;   EMAX   =-10.00  energy-range for DOS
   EFERMI =   0.00
   ISMEAR =     0;   SIGMA  =   0.05  broadening in eV -4-tet -1-fermi 0-gaus

 Electronic relaxation 2 (details)
   IALGO  =     38    algorithm
   LDIAG  =      T    sub-space diagonalisation (order eigenvalues)
   LSUBROT=      F    optimize rotation matrix (better conditioning)
   TURBO    =      0    0=normal 1=particle mesh
   IRESTART =      0    0=no restart 2=restart with 2 vectors
   NREBOOT  =      0    no. of reboots
   NMIN     =      0    reboot dimension
   EREF     =   0.00    reference energy to select bands
   IMIX   =      4    mixing-type and parameters
     AMIX     =   0.40;   BMIX     =  1.00
     AMIX_MAG =   1.60;   BMIX_MAG =  1.00
     AMIN     =   0.10
     WC   =   100.;   INIMIX=   1;  MIXPRE=   1;  MAXMIX= -45

 Intra band minimization:
   WEIMIN = 0.0000     energy-eigenvalue tresh-hold
   EBREAK =  0.16E-07  absolut break condition
   DEPER  =   0.30     relativ break condition

   TIME   =   0.40     timestep for ELM

  volume/ion in A,a.u.               =      10.64        71.80
  Fermi-wavevector in a.u.,A,eV,Ry     =   1.548246  2.925761 32.614055  2.397065
  Thomas-Fermi vector in A             =   2.653224

 Write flags
   LWAVE        =      F    write WAVECAR
   LDOWNSAMPLE  =      F    k-point downsampling of WAVECAR
   LCHARG       =      F    write CHGCAR
   LVTOT        =      F    write LOCPOT, total local potential
   LVHAR        =      F    write LOCPOT, Hartree potential only
   LELF         =      F    write electronic localiz. function (ELF)
   LORBIT       =     11    0 simple, 1 ext, 2 COOP (PROOUT), +10 PAW based schemes

 Dipole corrections
   LMONO  =      F    monopole corrections only (constant potential shift)
   LDIPOL =      F    correct potential (dipole corrections)
   IDIPOL =      0    1-x, 2-y, 3-z, 4-all directions
   EPSILON=  1.0000000 bulk dielectric constant

 Exchange correlation treatment:
   GGA     =    --    GGA type
   VOSKOWN =     0    Vosko Wilk Nusair interpolation
   LHFCALC =     F    Hartree Fock is set to
   LHFONE  =     F    Hartree Fock one center treatment
   AEXX    =    0.0000 exact exchange contribution

 Linear response parameters
   LEPSILON=     F    determine dielectric tensor
   LRPA    =     F    only Hartree local field effects (RPA)
   LNABLA  =     F    use nabla operator in PAW spheres
   LVEL    =     F    velocity operator in full k-point grid
   CSHIFT  =0.1000    complex shift for real part using Kramers Kronig
   OMEGAMAX=  -1.0    maximum frequency
   DEG_THRESHOLD= 0.2000000E-02 threshold for treating states as degnerate
   RTIME   =   -0.100 relaxation time in fs
  (WPLASMAI=    0.000 imaginary part of plasma frequency in eV, 0.658/RTIME)
   DFIELD  = 0.0000000 0.0000000 0.0000000 field for delta impulse in time

  Optional k-point grid parameters
   LKPOINTS_OPT  =     F    use optional k-point grid
   KPOINTS_OPT_MODE=     1    mode for optional k-point grid

 Orbital magnetization related:
   ORBITALMAG=     F  switch on orbital magnetization
   LCHIMAG   =     F  perturbation theory with respect to B field
   DQ        =  0.001000  dq finite difference perturbation B field
   LLRAUG    =     F  two centre corrections for induced B field

 Static calculation
 charge density and potential will be updated during run
 spin polarized calculation
 Variant of blocked Davidson
 Davidson routine will perform the subspace rotation
 perform sub-space diagonalisation
    after iterative eigenvector-optimisation
 modified Broyden-mixing scheme, WC =      100.0
 initial mixing is a Kerker type mixing with AMIX =  0.4000 and BMIX =      1.0000
 Hartree-type preconditioning will be used
 using additional bands            7
 reciprocal scheme for non local part
 use partial core corrections
 calculate Harris-corrections to forces
   (improved forces if not selfconsistent)
 use gradient corrections
 use of overlap-Matrix (Vanderbilt PP)
 Gauss-broadening in eV      SIGMA  =   0.05

  energy-cutoff  :      425.00
  volume of cell :       21.28
      direct lattice vectors                 reciprocal lattice vectors
     1.235999952 -2.140814714  0.000000000     0.404530760 -0.233555943  0.000000000
     1.235999952  2.140814714  0.000000000     0.404530760  0.233555943  0.000000000
     0.000000000  0.000000000  4.021144080     0.000000000  0.000000000  0.248685444

[...]

 k-points in units of 2pi/SCALE and weight: Automatic mesh
   0.00000000  0.00000000  0.00000000       0.007
   0.06742179 -0.03892599  0.00000000       0.042
   0.13484359 -0.07785198  0.00000000       0.042
   0.20226538 -0.11677797  0.00000000       0.021
   0.13484359  0.00000000  0.00000000       0.042
   0.20226538 -0.03892599  0.00000000       0.083
   0.26968717  0.00000000  0.00000000       0.014
   0.00000000  0.00000000  0.06217136       0.014
   0.06742179 -0.03892599  0.06217136       0.083
   0.13484359 -0.07785198  0.06217136       0.083
   0.20226538 -0.11677797  0.06217136       0.042
   0.13484359  0.00000000  0.06217136       0.083
   0.20226538 -0.03892599  0.06217136       0.167
   0.26968717  0.00000000  0.06217136       0.028
   0.00000000  0.00000000  0.12434272       0.007
   0.06742179 -0.03892599  0.12434272       0.042
   0.13484359 -0.07785198  0.12434272       0.042
   0.20226538 -0.11677797  0.12434272       0.021
   0.13484359  0.00000000  0.12434272       0.042
   0.20226538 -0.03892599  0.12434272       0.083
   0.26968717  0.00000000  0.12434272       0.014

 k-points in reciprocal lattice and weights: Automatic mesh
   0.00000000  0.00000000  0.00000000       0.007
   0.16666667  0.00000000  0.00000000       0.042
   0.33333333  0.00000000  0.00000000       0.042
   0.50000000  0.00000000  0.00000000       0.021
   0.16666667  0.16666667  0.00000000       0.042
   0.33333333  0.16666667  0.00000000       0.083
   0.33333333  0.33333333  0.00000000       0.014
   0.00000000  0.00000000  0.25000000       0.014
   0.16666667  0.00000000  0.25000000       0.083
   0.33333333  0.00000000  0.25000000       0.083
   0.50000000  0.00000000  0.25000000       0.042
   0.16666667  0.16666667  0.25000000       0.083
   0.33333333  0.16666667  0.25000000       0.167
   0.33333333  0.33333333  0.25000000       0.028
   0.00000000  0.00000000  0.50000000       0.007
   0.16666667  0.00000000  0.50000000       0.042
   0.33333333  0.00000000  0.50000000       0.042
   0.50000000  0.00000000  0.50000000       0.021
   0.16666667  0.16666667  0.50000000       0.042
   0.33333333  0.16666667  0.50000000       0.083
   0.33333333  0.33333333  0.50000000       0.014

 position of ions in fractional coordinates (direct lattice)
   0.33333333  0.66666667  0.25000000
   0.66666667  0.33333333  0.75000000

 position of ions in cartesian coordinates  (Angst):
   1.23599995  0.71360490  1.00528602
   1.23599995 -0.71360490  3.01585806

 k-point   1 :   0.0000 0.0000 0.0000  plane waves:     391
 k-point   2 :   0.1667 0.0000 0.0000  plane waves:     409
 k-point   3 :   0.3333 0.0000 0.0000  plane waves:     427
 k-point   4 :   0.5000 0.0000 0.0000  plane waves:     428
 k-point   5 :   0.1667 0.1667 0.0000  plane waves:     422
 k-point   6 :   0.3333 0.1667 0.0000  plane waves:     428
 k-point   7 :   0.3333 0.3333 0.0000  plane waves:     438
 k-point   8 :   0.0000 0.0000 0.2500  plane waves:     404
 k-point   9 :   0.1667 0.0000 0.2500  plane waves:     421
 k-point  10 :   0.3333 0.0000 0.2500  plane waves:     425
 k-point  11 :   0.5000 0.0000 0.2500  plane waves:     432
 k-point  12 :   0.1667 0.1667 0.2500  plane waves:     418
 k-point  13 :   0.3333 0.1667 0.2500  plane waves:     421
 k-point  14 :   0.3333 0.3333 0.2500  plane waves:     426
 k-point  15 :   0.0000 0.0000 0.5000  plane waves:     422
 k-point  16 :   0.1667 0.0000 0.5000  plane waves:     428
 k-point  17 :   0.3333 0.0000 0.5000  plane waves:     426
 k-point  18 :   0.5000 0.0000 0.5000  plane waves:     432
 k-point  19 :   0.1667 0.1667 0.5000  plane waves:     424
 k-point  20 :   0.3333 0.1667 0.5000  plane waves:     420
 k-point  21 :   0.3333 0.3333 0.5000  plane waves:     432

 maximum and minimum number of plane-waves per node :        79       59

 maximum number of plane-waves:       438
 maximum index in each direction:
   IXMAX=    4   IYMAX=    4   IZMAX=    6
   IXMIN=   -4   IYMIN=   -4   IZMIN=   -7

 parallel 3D FFT for wavefunctions:
    minimum data exchange during FFTs selected (reduces bandwidth)
 parallel 3D FFT for charge:
    minimum data exchange during FFTs selected (reduces bandwidth)

 Broyden mixing: mesh for mixing (old mesh)
   NGX =  9   NGY =  9   NGZ = 13
  (NGX  = 36   NGY  = 36   NGZ  = 56)
  gives a total of   1053 points

 initial charge density was supplied:
 charge density of overlapping atoms calculated
 number of electron      18.0000000 magnetization       6.0000000
 keeping initial charge density in first step

 Maximum index for augmentation-charges         1066 (set IRDMAX)

 First call to EWALD:  gamma=   0.640
 Maximum number of real-space cells 3x 3x 2
 Maximum number of reciprocal cells 3x 3x 4

--------------------------------------- Iteration      1(   1)  ---------------------------------------

 eigenvalue-minimisations  :  1384
 total energy-change (2. order) : 0.6809498E+02  (-0.7405762E+03)
 number of electron      18.0000000 magnetization       6.0000000
 augmentation part       18.0000000 magnetization       6.0000000

 Free energy of the ion-electron system (eV)
  alpha Z        PSCENC =        79.61870385
  Ewald energy   TEWEN  =     -1531.60263765
  -Hartree energ DENC   =      -295.86427829
  -exchange      EXHF   =         0.00000000
  -V(xc)+E(xc)   XCENC  =        35.75670864
  PAW double counting   =      1439.98163886    -1545.88690193
  entropy T*S    EENTRO =        -0.00328308
  eigenvalues    EBANDS =       259.37180423
  atomic energy  EATOM  =      1626.72322989
  Solvation  Ediel_sol  =         0.00000000
  free energy    TOTEN  =        68.09498451 eV

  energy without entropy =       68.09826759  energy(sigma->0) =       68.09662605

[...]

 eigenvalue-minimisations  :  1360
 total energy-change (2. order) :-0.8177459E+02  (-0.7547996E+02)
 number of electron      18.0000000 magnetization       6.0000000
 augmentation part       18.0000000 magnetization       6.0000000

[...]

 Broyden mixing:
  rms(total) = 0.16528E+01    rms(broyden)= 0.16528E+01
  rms(prec ) = 0.27200E+01
  weight for this iteration     100.00

[...]

 eigenvalues of (default mixing * dielectric matrix)
  average eigenvalue GAMMA=   0.9151
  0.9151

[...]

 eigenvalue-minimisations  :  1928
 total energy-change (2. order) :-0.8161010E-07  (-0.3584181E-05)
 number of electron      17.9999982 magnetization       3.1534880
 augmentation part       10.2563855 magnetization       2.8402054

[...]

 Broyden mixing:
  rms(total) = 0.13904E-02    rms(broyden)= 0.13903E-02
  rms(prec ) = 0.21703E-02
  weight for this iteration     100.00

 eigenvalues of (default mixing * dielectric matrix)
  average eigenvalue GAMMA=   1.1847
  2.2691  1.8278  1.0901  1.0901  0.7329  0.6414  0.6414

[...]

--------------------------------------- Iteration      1(  13)  ---------------------------------------

 eigenvalue-minimisations  :   800
 total energy-change (2. order) : 0.5384911E-06  (-0.1067346E-06)
 number of electron      17.9999982 magnetization       3.1519995
 augmentation part       10.2565692 magnetization       2.8389106

 Free energy of the ion-electron system (eV)
  alpha Z        PSCENC =        79.61870385
  Ewald energy   TEWEN  =     -1531.60263765
  -Hartree energ DENC   =      -261.01576503
  -exchange      EXHF   =         0.00000000
  -V(xc)+E(xc)   XCENC  =        32.92203164
  PAW double counting   =      1827.65244232    -1933.74114937
  entropy T*S    EENTRO =        -0.00256600
  eigenvalues    EBANDS =       145.35225125
  atomic energy  EATOM  =      1626.72322989
  Solvation  Ediel_sol  =         0.00000000
  free energy    TOTEN  =       -14.09345910 eV

  energy without entropy =      -14.09089310  energy(sigma->0) =      -14.09217610

 average (electrostatic) potential at core
  the test charge radii are     1.0452
  (the norm of the test charge is              1.0000)
       1 -78.0076       2 -78.0076

 E-fermi :  10.4929     XC(G=0): -13.5175     alpha+bet :-18.0772

 Fermi energy:        10.4929227164

 spin component 1

 k-point     1 :       0.0000    0.0000    0.0000
  band No.  band energies     occupation
      1       1.5086      1.00000
      2       5.3206      1.00000
      3       7.8837      1.00000
      4       7.9600      1.00000
      5       7.9600      1.00000
      6       8.2768      1.00000
      7       8.2768      1.00000
      8       8.6457      1.00000
      9       8.6457      1.00000
     10       9.7575      1.00000
     11       9.7575      1.00000
     12      10.3744      0.99960
     13      16.9901      0.00000
     14      32.7540      0.00000
     15      35.5664      0.00000
     16      35.5666      0.00000

[...]

 k-point    21 :       0.3333    0.3333    0.5000
  band No.  band energies     occupation
      1       6.6529      1.00000
      2       6.6529      1.00000
      3       6.7885      1.00000
      4       6.7885      1.00000
      5       7.5925      1.00000
      6       7.5925      1.00000
      7       8.6646      1.00000
      8       8.6646      1.00000
      9       9.8099      1.00000
     10       9.8099      1.00000
     11      16.3936      0.00000
     12      16.3936      0.00000
     13      18.0055      0.00000
     14      18.0055      0.00000
     15      20.3262      0.00000
     16      20.3262      0.00000
 Fermi energy:        10.4929227164

 spin component 2

[...]

 k-point    21 :       0.3333    0.3333    0.5000
  band No.  band energies     occupation
      1       7.8904      1.00000
      2       7.8904      1.00000
      3       7.9546      1.00000
      4       7.9546      1.00000
      5       8.7679      1.00000
      6       8.7679      1.00000
      7      10.3352      1.00000
      8      10.3352      1.00000
      9      11.6272      0.00000
     10      11.6272      0.00000
     11      17.0202      0.00000
     12      17.0202      0.00000
     13      18.7086      0.00000
     14      18.7086      0.00000
     15      20.9907      0.00000
     16      20.9907      0.00000

 soft charge-density along one line, spin component           1
         0         1         2         3         4         5         6         7         8         9
 total charge-density along one line

 soft charge-density along one line, spin component           2
         0         1         2         3         4         5         6         7         8         9
 total charge-density along one line

------------------------ aborting loop because EDIFF is reached ----------------------------------------

 total charge

# of ion       s       p       d       tot
    1        0.497   0.534   7.282   8.312
    2        0.497   0.534   7.282   8.312
tot          0.993   1.067  14.564  16.624

 magnetization (x)

[...]

  FORCE on cell =-STRESS in cart. coord.  units (eV):
  Direction    XX          YY          ZZ          XY          YZ          ZX
  Alpha Z    79.61870    79.61870    79.61870
  Ewald    -511.71047  -511.71047  -508.18277     0.00000     0.00000    -0.00000
  Hartree    86.52047    86.52047    87.97313     0.00000    -0.00000    -0.00000
  E(xc)     -92.66010   -92.66009   -92.63651    -0.00000    -0.00000    -0.00000
  Local     -15.78083   -15.78074   -19.75009    -0.00000    -0.00000     0.00000
  n-local   -15.02549    -3.85824    -9.53899     3.42275    -0.62978     1.90989
  augment   311.05064   311.05056   310.34532    -0.00000    -0.00000     0.00000
  Kinetic   155.16026   150.46905   152.44128    -2.78764    -0.43292     0.46906
  Fock        0.00000     0.00000     0.00000     0.00000     0.00000     0.00000
  Total       0.41121     0.41121     0.27007    -0.00000     0.00000    -0.00000
  in kB      30.96001    30.96001    20.33304    -0.00000     0.00000    -0.00000

 VOLUME and BASIS-vectors are now :
  energy-cutoff  :      425.00
  volume of cell :       21.28
      direct lattice vectors                 reciprocal lattice vectors
     1.235999952 -2.140814714  0.000000000     0.404530760 -0.233555943  0.000000000
     1.235999952  2.140814714  0.000000000     0.404530760  0.233555943  0.000000000
     0.000000000  0.000000000  4.021144080     0.000000000  0.000000000  0.248685444

  length of vectors
     2.471999903  2.471999903  4.021144080     0.467111887  0.467111887  0.248685444

 FORCES acting on ions
    electron-ion (+dipol)            ewald-force                    non-local-force                 convergence-correction
   0.557E-12 -.101E-06 -.847E-12   -.138E-13 0.239E-11 -.240E-13   -.694E-17 -.208E-16 -.130E-17   0.646E-14 -.136E-08 -.712E-13
   0.396E-12 0.101E-06 -.519E-11   0.114E-13 -.239E-11 0.240E-13   0.694E-17 0.347E-16 0.434E-18   -.119E-13 0.136E-08 0.583E-13
   0.953E-12 0.345E-10 -.604E-11   -.234E-14 0.772E-15 0.000E+00   0.000E+00 0.139E-16 -.867E-18   -.548E-14 -.297E-13 -.128E-13

 POSITION                                       TOTAL-FORCE (eV/Angst)
      1.23600      0.71360      1.00529         0.000000      0.000000     -0.000000
      1.23600     -0.71360      3.01586        -0.000000     -0.000000      0.000000
    total drift:                                0.000000      0.000000     -0.000000

  FREE ENERGIE OF THE ION-ELECTRON SYSTEM (eV)
  free  energy   TOTEN  =       -14.09345910 eV

  energy  without entropy=      -14.09089310  energy(sigma->0) =      -14.09217610

 total charge

[...]

 magnetization (x)

# of ion       s       p       d       tot
    1       -0.016  -0.050   1.657   1.591
    2       -0.016  -0.050   1.657   1.591
tot         -0.032  -0.100   3.313   3.181