 vasp.6.3.2 27Jun22 (build Aug 12 2022 00:53:59) complex

 executed on               tv2STD date 2024.12.02  16:52:30

 INCAR:
   SYSTEM = Co-hcc
   NWRITE = 2    write-flag
   ISTART = 0    job   : 0-new, 1-cont, 2-samecut
   ICHARG = 2    charge: 0-wave, 1-file, 2-atom, >10-const
   INIWAV = 1    electr: 0-lowe 1-rand  2-diag
   ENCUT = 425.0     energy cutoff in eV
   PREC = Accurate      normal | accurate
   ADDGRID = .FALSE.  (use fine grid)
   NELM = 100     number of ELM steps
   EDIFF = 1E-06    energy stopping-criterion for ELM
   LREAL = .FALSE.      real-space projection (.FALSE., .TRUE., On, Auto)
   ALGO = Normal     Normal, Fast, Very_Fast
   LWAVE = .FALSE.
   LCHARG = .FALSE.
   NSW = 0       max number of geometry steps
   IBRION = -1     ionic relax: 0-MD, 1-quasi-Newton, 2-CG, 3-Damped MD
   EDIFFG = -0.02  force (eV/A) stopping-criterion for geometry steps
   ISIF = 2     (1:force\=y stress\=trace only ions\=y shape\=n volume\=n)
   ISYM = 1     (1-use symmetry, 0-no symmetry)
   ISMEAR = 0     (-1-Fermi, 1-Methfessel/Paxton)
   SIGMA = 0.05   broadening in eV
   LORBIT = 11
   NPAR = 4
   ISPIN = 2
   MAGMOM = 2*3

 POTCAR:    PAW_PBE Co 02Aug2007
 POTCAR:    PAW_PBE Co 02Aug2007
   VRHFIN =Co: d8 s1

   TITEL  = PAW_PBE Co 02Aug2007
   POMASS =   58.933; ZVAL   =    9.000    mass and valenz
   ENMAX  =  267.968; ENMIN  =  200.976 eV

  PAW_PBE Co 02Aug2007                  :

 POSCAR: Co hcp
  positions in direct lattice
 exchange correlation table for  LEXCH =        8
   RHO(1)=    0.500       N(1)  =     2000
   RHO(2)=  100.500       N(2)  =     4000

 ion  position               nearest neighbor table
   1  0.333  0.667  0.250-   2 2.47   2 2.47   2 2.47   2 2.47   2 2.47   2 2.47
   2  0.667  0.333  0.750-   1 2.47   1 2.47   1 2.47   1 2.47   1 2.47   1 2.47

  LATTYP: Found a hexagonal cell.
 ALAT       =     2.4719999032
 C/A-ratio  =     1.6266764715

  Lattice vectors:

 A1 = (   1.2359999516,  -2.1408147143,   0.0000000000)
 A2 = (   1.2359999516,   2.1408147143,   0.0000000000)
 A3 = (   0.0000000000,   0.0000000000,   4.0211440800)

Analysis of symmetry for initial positions (statically):
 Subroutine PRICEL returns:
 Original cell was already a primitive cell.

 Routine SETGRP: Setting up the symmetry group for a
 hexagonal supercell.

 Subroutine GETGRP returns: Found 24 space group operations
 (whereof 12 operations were pure point group operations)
 out of a pool of 24 trial point group operations.

The static configuration has the point symmetry D_3d.
 The point group associated with its full space group is D_6h.

Analysis of symmetry for dynamics (positions and initial velocities):
 Subroutine PRICEL returns:
 Original cell was already a primitive cell.

[...]

The dynamic configuration has the point symmetry D_3d.
 The point group associated with its full space group is D_6h.

Analysis of structural, dynamic, and magnetic symmetry:
 Subroutine PRICEL returns:
 Original cell was already a primitive cell.

 Routine SETGRP: Setting up the symmetry group for a
 hexagonal supercell.

 Subroutine GETGRP returns: Found 24 space group operations
 (whereof 12 operations were pure point group operations)
 out of a pool of 24 trial point group operations.

The overall configuration has the point symmetry D_3d.
 The point group associated with its full space group is D_6h.

 Subroutine INISYM returns: Found 24 space group operations
 (whereof 12 operations are pure point group operations),
 and found     1 'primitive' translations

                                     Primitive cell

  volume of cell :      21.2803

  direct lattice vectors                    reciprocal lattice vectors
     1.235999952 -2.140814714  0.000000000     0.404530760 -0.233555943  0.000000000
     1.235999952  2.140814714  0.000000000     0.404530760  0.233555943  0.000000000
     0.000000000  0.000000000  4.021144080     0.000000000  0.000000000  0.248685444

  length of vectors
     2.471999903  2.471999903  4.021144080     0.467111887  0.467111887  0.248685444

  position of ions in fractional coordinates (direct lattice)
     0.333333333  0.666666667  0.250000000
     0.666666667  0.333333333  0.750000000

  ion indices of the primitive-cell ions
   primitive index   ion index
                 1           1
                 2           2

 KPOINTS: Automatic mesh

Automatic generation of k-mesh.
 Grid dimensions read from file:
 generate k-points for:   16   16   12

 Generating k-lattice:

  Cartesian coordinates                     Fractional coordinates (reciprocal lattice)
     0.025283173 -0.014597246  0.000000000     0.062500000 -0.000000000  0.000000000
     0.025283173  0.014597246  0.000000000    -0.000000000  0.062500000  0.000000000
     0.000000000  0.000000000  0.020723787     0.000000000  0.000000000  0.083333333

  Length of vectors
     0.029194493  0.029194493  0.020723787

  Shift w.r.t. Gamma in fractional coordinates (k-lattice)
     0.000000000  0.000000000  0.000000000

 Subroutine IBZKPT returns following result:

 Found    210 irreducible k-points:

 Following reciprocal coordinates:
            Coordinates               Weight
  0.000000  0.000000  0.000000      1.000000
  0.062500  0.000000  0.000000      6.000000
  0.125000  0.000000  0.000000      6.000000
  0.187500  0.000000  0.000000      6.000000
  0.250000  0.000000  0.000000      6.000000
  0.312500  0.000000  0.000000      6.000000
  0.375000  0.000000  0.000000      6.000000
  0.437500  0.000000  0.000000      6.000000
  0.500000  0.000000  0.000000      3.000000
  0.062500  0.062500  0.000000      6.000000
  0.125000  0.062500  0.000000     12.000000
  0.187500  0.062500  0.000000     12.000000
  0.250000  0.062500  0.000000     12.000000
  0.312500  0.062500  0.000000     12.000000
  0.375000  0.062500  0.000000     12.000000
  0.437500  0.062500  0.000000     12.000000
  0.125000  0.125000  0.000000      6.000000
  0.187500  0.125000  0.000000     12.000000
  0.250000  0.125000  0.000000     12.000000
  0.312500  0.125000  0.000000     12.000000
  0.375000  0.125000  0.000000     12.000000
  0.437500  0.125000  0.000000      6.000000
  0.187500  0.187500  0.000000      6.000000
  0.250000  0.187500  0.000000     12.000000
  0.312500  0.187500  0.000000     12.000000
  0.375000  0.187500  0.000000     12.000000
  0.250000  0.250000  0.000000      6.000000
  0.312500  0.250000  0.000000     12.000000
  0.375000  0.250000  0.000000      6.000000
  0.312500  0.312500  0.000000      6.000000
  0.000000  0.000000  0.083333      2.000000
  0.062500  0.000000  0.083333     12.000000
  0.125000  0.000000  0.083333     12.000000
  0.187500  0.000000  0.083333     12.000000
  0.250000  0.000000  0.083333     12.000000
  0.312500  0.000000  0.083333     12.000000
  0.375000  0.000000  0.083333     12.000000
  0.437500  0.000000  0.083333     12.000000
  0.500000  0.000000  0.083333      6.000000
  0.062500  0.062500  0.083333     12.000000
  0.125000  0.062500  0.083333     24.000000
  0.187500  0.062500  0.083333     24.000000
  0.250000  0.062500  0.083333     24.000000
  0.312500  0.062500  0.083333     24.000000
  0.375000  0.062500  0.083333     24.000000
  0.437500  0.062500  0.083333     24.000000
  0.125000  0.125000  0.083333     12.000000
  0.187500  0.125000  0.083333     24.000000
  0.250000  0.125000  0.083333     24.000000
  0.312500  0.125000  0.083333     24.000000
  0.375000  0.125000  0.083333     24.000000
  0.437500  0.125000  0.083333     12.000000
  0.187500  0.187500  0.083333     12.000000
  0.250000  0.187500  0.083333     24.000000
  0.312500  0.187500  0.083333     24.000000
  0.375000  0.187500  0.083333     24.000000
  0.250000  0.250000  0.083333     12.000000
  0.312500  0.250000  0.083333     24.000000
  0.375000  0.250000  0.083333     12.000000
  0.312500  0.312500  0.083333     12.000000
[...]
  0.437500  0.062500  0.500000     12.000000
  0.125000  0.125000  0.500000      6.000000
  0.187500  0.125000  0.500000     12.000000
  0.250000  0.125000  0.500000     12.000000
  0.312500  0.125000  0.500000     12.000000
  0.375000  0.125000  0.500000     12.000000
  0.437500  0.125000  0.500000      6.000000
  0.187500  0.187500  0.500000      6.000000
  0.250000  0.187500  0.500000     12.000000
  0.312500  0.187500  0.500000     12.000000
  0.375000  0.187500  0.500000     12.000000
  0.250000  0.250000  0.500000      6.000000
  0.312500  0.250000  0.500000     12.000000
  0.375000  0.250000  0.500000      6.000000
  0.312500  0.312500  0.500000      6.000000

 Following cartesian coordinates:
            Coordinates               Weight
  0.000000  0.000000  0.000000      1.000000
  0.025283 -0.014597  0.000000      6.000000
  0.050566 -0.029194  0.000000      6.000000
  0.075850 -0.043792  0.000000      6.000000
  0.101133 -0.058389  0.000000      6.000000
  0.126416 -0.072986  0.000000      6.000000
  0.151699 -0.087583  0.000000      6.000000
  0.176982 -0.102181  0.000000      6.000000
  0.202265 -0.116778  0.000000      3.000000
  0.050566  0.000000  0.000000      6.000000
  0.075850 -0.014597  0.000000     12.000000
  0.101133 -0.029194  0.000000     12.000000
  0.126416 -0.043792  0.000000     12.000000
  0.151699 -0.058389  0.000000     12.000000
  0.176982 -0.072986  0.000000     12.000000
  0.202265 -0.087583  0.000000     12.000000
  0.101133  0.000000  0.000000      6.000000
  0.126416 -0.014597  0.000000     12.000000
  0.151699 -0.029194  0.000000     12.000000
  0.176982 -0.043792  0.000000     12.000000
  0.202265 -0.058389  0.000000     12.000000
  0.227549 -0.072986  0.000000      6.000000
  0.151699  0.000000  0.000000      6.000000
  0.176982 -0.014597  0.000000     12.000000
  0.202265 -0.029194  0.000000     12.000000
  0.227549 -0.043792  0.000000     12.000000
  0.202265  0.000000  0.000000      6.000000
  0.227549 -0.014597  0.000000     12.000000
  0.252832 -0.029194  0.000000      6.000000
  0.252832  0.000000  0.000000      6.000000
  0.000000  0.000000  0.020724      2.000000
  0.025283 -0.014597  0.020724     12.000000
  0.050566 -0.029194  0.020724     12.000000
  0.075850 -0.043792  0.020724     12.000000
  0.101133 -0.058389  0.020724     12.000000
  0.126416 -0.072986  0.020724     12.000000
  0.151699 -0.087583  0.020724     12.000000
  0.176982 -0.102181  0.020724     12.000000
  0.202265 -0.116778  0.020724      6.000000
  0.050566  0.000000  0.020724     12.000000
  0.075850 -0.014597  0.020724     24.000000
  0.101133 -0.029194  0.020724     24.000000
  0.126416 -0.043792  0.020724     24.000000
  0.151699 -0.058389  0.020724     24.000000
  0.176982 -0.072986  0.020724     24.000000
  0.202265 -0.087583  0.020724     24.000000
  0.101133  0.000000  0.020724     12.000000
  0.126416 -0.014597  0.020724     24.000000
  0.151699 -0.029194  0.020724     24.000000
  0.176982 -0.043792  0.020724     24.000000
  0.202265 -0.058389  0.020724     24.000000
  0.227549 -0.072986  0.020724     12.000000
  0.151699  0.000000  0.020724     12.000000
  0.176982 -0.014597  0.020724     24.000000
  0.202265 -0.029194  0.020724     24.000000
  0.227549 -0.043792  0.020724     24.000000
  0.202265  0.000000  0.020724     12.000000
[...]
   0.00000000  0.00000000  0.08333333       0.001
   0.06250000  0.00000000  0.08333333       0.004
   0.12500000  0.00000000  0.08333333       0.004
   0.18750000  0.00000000  0.08333333       0.004
   0.25000000  0.00000000  0.08333333       0.004
   0.31250000  0.00000000  0.08333333       0.004
   0.37500000  0.00000000  0.08333333       0.004
   0.43750000  0.00000000  0.08333333       0.004
   0.50000000  0.00000000  0.08333333       0.002
   0.06250000  0.06250000  0.08333333       0.004
   0.12500000  0.06250000  0.08333333       0.008
   0.18750000  0.06250000  0.08333333       0.008
   0.25000000  0.06250000  0.08333333       0.008
   0.31250000  0.06250000  0.08333333       0.008
   0.37500000  0.06250000  0.08333333       0.008
   0.43750000  0.06250000  0.08333333       0.008
   0.12500000  0.12500000  0.08333333       0.004
   0.18750000  0.12500000  0.08333333       0.008
   0.25000000  0.12500000  0.08333333       0.008
   0.31250000  0.12500000  0.08333333       0.008
   0.37500000  0.12500000  0.08333333       0.008
   0.43750000  0.12500000  0.08333333       0.004
   0.18750000  0.18750000  0.08333333       0.004
   0.25000000  0.18750000  0.08333333       0.008
   0.31250000  0.18750000  0.08333333       0.008
   0.37500000  0.18750000  0.08333333       0.008
   0.25000000  0.25000000  0.08333333       0.004
   0.31250000  0.25000000  0.08333333       0.008
   0.37500000  0.25000000  0.08333333       0.004
   0.31250000  0.31250000  0.08333333       0.004
[...]
   0.43750000  0.06250000  0.50000000       0.004
   0.12500000  0.12500000  0.50000000       0.002
   0.18750000  0.12500000  0.50000000       0.004
   0.25000000  0.12500000  0.50000000       0.004
   0.31250000  0.12500000  0.50000000       0.004
   0.37500000  0.12500000  0.50000000       0.004
   0.43750000  0.12500000  0.50000000       0.002
   0.18750000  0.18750000  0.50000000       0.002
   0.25000000  0.18750000  0.50000000       0.004
   0.31250000  0.18750000  0.50000000       0.004
   0.37500000  0.18750000  0.50000000       0.004
   0.25000000  0.25000000  0.50000000       0.002
   0.31250000  0.25000000  0.50000000       0.004
   0.37500000  0.25000000  0.50000000       0.002
   0.31250000  0.31250000  0.50000000       0.002

 position of ions in fractional coordinates (direct lattice)
   0.33333333  0.66666667  0.25000000
   0.66666667  0.33333333  0.75000000

 position of ions in cartesian coordinates  (Angst):
   1.23599995  0.71360490  1.00528602
   1.23599995 -0.71360490  3.01585806

 k-point   1 :   0.0000 0.0000 0.0000  plane waves:     391
 k-point   2 :   0.0625 0.0000 0.0000  plane waves:     405
 k-point   3 :   0.1250 0.0000 0.0000  plane waves:     411
 k-point   4 :   0.1875 0.0000 0.0000  plane waves:     417
 k-point   5 :   0.2500 0.0000 0.0000  plane waves:     427
 k-point   6 :   0.3125 0.0000 0.0000  plane waves:     431
 k-point   7 :   0.3750 0.0000 0.0000  plane waves:     429
 k-point   8 :   0.4375 0.0000 0.0000  plane waves:     426
 k-point   9 :   0.5000 0.0000 0.0000  plane waves:     428
 k-point  10 :   0.0625 0.0625 0.0000  plane waves:     411
 k-point  11 :   0.1250 0.0625 0.0000  plane waves:     415
 k-point  12 :   0.1875 0.0625 0.0000  plane waves:     422
 k-point  13 :   0.2500 0.0625 0.0000  plane waves:     425
 k-point  14 :   0.3125 0.0625 0.0000  plane waves:     425
 k-point  15 :   0.3750 0.0625 0.0000  plane waves:     430
 k-point  16 :   0.4375 0.0625 0.0000  plane waves:     430
 k-point  17 :   0.1250 0.1250 0.0000  plane waves:     418
 k-point  18 :   0.1875 0.1250 0.0000  plane waves:     421
 k-point  19 :   0.2500 0.1250 0.0000  plane waves:     420
 k-point  20 :   0.3125 0.1250 0.0000  plane waves:     424
 k-point  21 :   0.3750 0.1250 0.0000  plane waves:     424
 k-point  22 :   0.4375 0.1250 0.0000  plane waves:     430
 k-point  23 :   0.1875 0.1875 0.0000  plane waves:     422
 k-point  24 :   0.2500 0.1875 0.0000  plane waves:     420
 k-point  25 :   0.3125 0.1875 0.0000  plane waves:     427
 k-point  26 :   0.3750 0.1875 0.0000  plane waves:     426
 k-point  27 :   0.2500 0.2500 0.0000  plane waves:     430
 k-point  28 :   0.3125 0.2500 0.0000  plane waves:     429
 k-point  29 :   0.3750 0.2500 0.0000  plane waves:     426
 k-point  30 :   0.3125 0.3125 0.0000  plane waves:     428
 k-point  31 :   0.0000 0.0000 0.0833  plane waves:     397
 k-point  32 :   0.0625 0.0000 0.0833  plane waves:     411
 k-point  33 :   0.1250 0.0000 0.0833  plane waves:     410
 k-point  34 :   0.1875 0.0000 0.0833  plane waves:     415
 k-point  35 :   0.2500 0.0000 0.0833  plane waves:     421
 k-point  36 :   0.3125 0.0000 0.0833  plane waves:     428
 k-point  37 :   0.3750 0.0000 0.0833  plane waves:     425
 k-point  38 :   0.4375 0.0000 0.0833  plane waves:     431
 k-point  39 :   0.5000 0.0000 0.0833  plane waves:     428
 k-point  40 :   0.0625 0.0625 0.0833  plane waves:     414
 k-point  41 :   0.1250 0.0625 0.0833  plane waves:     414
 k-point  42 :   0.1875 0.0625 0.0833  plane waves:     421
 k-point  43 :   0.2500 0.0625 0.0833  plane waves:     425
 k-point  44 :   0.3125 0.0625 0.0833  plane waves:     426
 k-point  45 :   0.3750 0.0625 0.0833  plane waves:     427
 k-point  46 :   0.4375 0.0625 0.0833  plane waves:     430
 k-point  47 :   0.1250 0.1250 0.0833  plane waves:     420
 k-point  48 :   0.1875 0.1250 0.0833  plane waves:     420
 k-point  49 :   0.2500 0.1250 0.0833  plane waves:     419
 k-point  50 :   0.3125 0.1250 0.0833  plane waves:     424
 k-point  51 :   0.3750 0.1250 0.0833  plane waves:     430
 k-point  52 :   0.4375 0.1250 0.0833  plane waves:     428
 k-point  53 :   0.1875 0.1875 0.0833  plane waves:     422
 k-point  54 :   0.2500 0.1875 0.0833  plane waves:     423
 k-point  55 :   0.3125 0.1875 0.0833  plane waves:     424
 k-point  56 :   0.3750 0.1875 0.0833  plane waves:     428
 k-point  57 :   0.2500 0.2500 0.0833  plane waves:     424
 k-point  58 :   0.3125 0.2500 0.0833  plane waves:     424
 k-point  59 :   0.3750 0.2500 0.0833  plane waves:     427
 k-point  60 :   0.3125 0.3125 0.0833  plane waves:     431
[...]
 k-point 196 :   0.4375 0.0625 0.5000  plane waves:     426
 k-point 197 :   0.1250 0.1250 0.5000  plane waves:     420
 k-point 198 :   0.1875 0.1250 0.5000  plane waves:     422
 k-point 199 :   0.2500 0.1250 0.5000  plane waves:     424
 k-point 200 :   0.3125 0.1250 0.5000  plane waves:     420
 k-point 201 :   0.3750 0.1250 0.5000  plane waves:     422
 k-point 202 :   0.4375 0.1250 0.5000  plane waves:     418
 k-point 203 :   0.1875 0.1875 0.5000  plane waves:     424
 k-point 204 :   0.2500 0.1875 0.5000  plane waves:     426
 k-point 205 :   0.3125 0.1875 0.5000  plane waves:     420
 k-point 206 :   0.3750 0.1875 0.5000  plane waves:     420
 k-point 207 :   0.2500 0.2500 0.5000  plane waves:     428
 k-point 208 :   0.3125 0.2500 0.5000  plane waves:     428
 k-point 209 :   0.3750 0.2500 0.5000  plane waves:     428
 k-point 210 :   0.3125 0.3125 0.5000  plane waves:     428

 maximum and minimum number of plane-waves per node :        80       60

 maximum number of plane-waves:       432
 maximum index in each direction:
   IXMAX=    4   IYMAX=    4   IZMAX=    6
   IXMIN=   -4   IYMIN=   -4   IZMIN=   -7

 parallel 3D FFT for wavefunctions:
    minimum data exchange during FFTs selected (reduces bandwidth)
 parallel 3D FFT for charge:
    minimum data exchange during FFTs selected (reduces bandwidth)

 Broyden mixing: mesh for mixing (old mesh)
   NGX =  9   NGY =  9   NGZ = 13
  (NGX  = 36   NGY  = 36   NGZ  = 56)
  gives a total of   1053 points

 initial charge density was supplied:
 charge density of overlapping atoms calculated
 number of electron      18.0000000 magnetization       6.0000000
 keeping initial charge density in first step

 Maximum index for augmentation-charges         1066 (set IRDMAX)

 First call to EWALD:  gamma=   0.640
 Maximum number of real-space cells 3x 3x 2
 Maximum number of reciprocal cells 3x 3x 4

--------------------------------------- Iteration      1(   1)  ---------------------------------------

 eigenvalue-minimisations  : 13776
 total energy-change (2. order) : 0.6946248E+02  (-0.7461885E+03)
 number of electron      18.0000000 magnetization       6.0000000
 augmentation part       18.0000000 magnetization       6.0000000

 Free energy of the ion-electron system (eV)
  alpha Z        PSCENC =        79.61870385
  Ewald energy   TEWEN  =     -1531.60263765
  -Hartree energ DENC   =      -295.86427829
  -exchange      EXHF   =         0.00000000
  -V(xc)+E(xc)   XCENC  =        35.75670864
  PAW double counting   =      1439.98163886    -1545.88690193
  entropy T*S    EENTRO =        -0.00223012
  eigenvalues    EBANDS =       260.73824875
  atomic energy  EATOM  =      1626.72322989
  Solvation  Ediel_sol  =         0.00000000
  free energy    TOTEN  =        69.46248200 eV

  energy without entropy =       69.46471212  energy(sigma->0) =       69.46359706

[...]

 eigenvalue-minimisations  : 13536
 total energy-change (2. order) :-0.8311049E+02  (-0.7671633E+02)
 number of electron      18.0000000 magnetization       6.0000000
 augmentation part       18.0000000 magnetization       6.0000000

[...]

 Broyden mixing:
  rms(total) = 0.16473E+01    rms(broyden)= 0.16473E+01
  rms(prec ) = 0.27096E+01
  weight for this iteration     100.00

[...]

 eigenvalues of (default mixing * dielectric matrix)
  average eigenvalue GAMMA=   0.9408
  0.9408

[...]

 eigenvalue-minimisations  : 14288
 total energy-change (2. order) : 0.2350055E-05  (-0.5862334E-06)
 number of electron      17.9999982 magnetization       3.1406897
 augmentation part       10.2527151 magnetization       2.8456619

 Broyden mixing:
  rms(total) = 0.14744E-02    rms(broyden)= 0.14744E-02
  rms(prec ) = 0.21365E-02
  weight for this iteration     100.00

 eigenvalues of (default mixing * dielectric matrix)
  average eigenvalue GAMMA=   1.2108
  2.3939  1.8555  1.1110  1.1110  0.6421  0.6421  0.7199

[...]

--------------------------------------- Iteration      1(  13)  ---------------------------------------

 eigenvalue-minimisations  :  9520
 total energy-change (2. order) :-0.3912467E-06  (-0.1123109E-06)
 number of electron      17.9999982 magnetization       3.1406897
 augmentation part       10.2527151 magnetization       2.8456619

 Free energy of the ion-electron system (eV)
  alpha Z        PSCENC =        79.61870385
  Ewald energy   TEWEN  =     -1531.60263765
  -Hartree energ DENC   =      -260.76358432
  -exchange      EXHF   =         0.00000000
  -V(xc)+E(xc)   XCENC  =        32.91430211
  PAW double counting   =      1827.28066522    -1933.39341921
  entropy T*S    EENTRO =        -0.00218141
  eigenvalues    EBANDS =       145.15714751
  atomic energy  EATOM  =      1626.72322989
  Solvation  Ediel_sol  =         0.00000000
  free energy    TOTEN  =       -14.06777402 eV

  energy without entropy =      -14.06559261  energy(sigma->0) =      -14.06668331

 average (electrostatic) potential at core
  the test charge radii are     1.0452
  (the norm of the test charge is              1.0000)
       1 -78.0245       2 -78.0245

 E-fermi :  10.5304     XC(G=0): -13.5194     alpha+bet :-18.0772

 Fermi energy:        10.5304471632

 spin component 1

 k-point     1 :       0.0000    0.0000    0.0000
  band No.  band energies     occupation
      1       1.5162      1.00000
      2       5.3168      1.00000
      3       7.8769      1.00000
      4       7.9364      1.00000
      5       7.9364      1.00000
      6       8.2521      1.00000
      7       8.2521      1.00000
      8       8.6339      1.00000
      9       8.6339      1.00000
     10       9.7442      1.00000
     11       9.7442      1.00000
     12      10.3890      0.99997
     13      16.9843      0.00000
     14      32.7615      0.00000
     15      35.5712      0.00000
     16      35.5715      0.00000

[...]

 k-point   210 :       0.3125    0.3125    0.5000
  band No.  band energies     occupation
      1       6.5179      1.00000
      2       6.5179      1.00000
      3       6.8989      1.00000
      4       6.8989      1.00000
      5       7.5734      1.00000
      6       7.5734      1.00000
      7       8.6514      1.00000
      8       8.6514      1.00000
      9       9.8115      1.00000
     10       9.8115      1.00000
     11      15.9171      0.00000
     12      15.9171      0.00000
     13      18.3933      0.00000
     14      18.3933      0.00000
     15      20.5135      0.00000
     16      20.5135      0.00000
 Fermi energy:        10.5304471632

 spin component 2

[...]

 k-point   210 :       0.3125    0.3125    0.5000
  band No.  band energies     occupation
      1       7.6832      1.00000
      2       7.6832      1.00000
      3       8.1333      1.00000
      4       8.1333      1.00000
      5       8.7451      1.00000
      6       8.7451      1.00000
      7      10.3201      1.00000
      8      10.3201      1.00000
      9      11.6349      0.00000
     10      11.6349      0.00000
     11      16.5812      0.00000
     12      16.5812      0.00000
     13      19.0569      0.00000
     14      19.0569      0.00000
     15      21.1488      0.00000
     16      21.1488      0.00000

 soft charge-density along one line, spin component           1
         0         1         2         3         4         5         6         7         8         9
 total charge-density along one line

 soft charge-density along one line, spin component           2
         0         1         2         3         4         5         6         7         8         9
 total charge-density along one line

------------------------ aborting loop because EDIFF is reached ----------------------------------------

 total charge

# of ion       s       p       d       tot
    1        0.496   0.537   7.277   8.311
    2        0.496   0.537   7.277   8.311
tot          0.993   1.075  14.554  16.621

 magnetization (x)

[...]

  FORCE on cell =-STRESS in cart. coord.  units (eV):
  Direction    XX          YY          ZZ          XY          YZ          ZX
  Alpha Z    79.61870    79.61870    79.61870
  Ewald    -511.71047  -511.71047  -508.18277     0.00000     0.00000    -0.00000
  Hartree    86.31690    86.31690    88.13276     0.00000     0.00000    -0.00000
  E(xc)     -92.63966   -92.63965   -92.63739    -0.00000     0.00000    -0.00000
  Local     -15.31272   -15.31262   -20.60832    -0.00000    -0.00000     0.00000
  n-local   -15.20629    -3.42999    -9.24260     3.39170    -0.65021     2.48406
  augment   310.82820   310.82811   310.70660    -0.00000     0.00000     0.00000
  Kinetic   155.36113   150.00507   152.43266    -3.24374    -0.55392     0.52625
  Fock        0.00000     0.00000     0.00000     0.00000     0.00000     0.00000
  Total       0.46592     0.46592     0.21963     0.00000     0.00000     0.00000
  in kB      35.07885    35.07885    16.53610     0.00000     0.00000     0.00000

 VOLUME and BASIS-vectors are now :
  energy-cutoff  :      425.00
  volume of cell :       21.28
      direct lattice vectors                 reciprocal lattice vectors
     1.235999952 -2.140814714  0.000000000     0.404530760 -0.233555943  0.000000000
     1.235999952  2.140814714  0.000000000     0.404530760  0.233555943  0.000000000
     0.000000000  0.000000000  4.021144080     0.000000000  0.000000000  0.248685444

  length of vectors
     2.471999903  2.471999903  4.021144080     0.467111887  0.467111887  0.248685444

 FORCES acting on ions
    electron-ion (+dipol)            ewald-force                    non-local-force                 convergence-correction
   -.339E-12 -.989E-07 -.872E-12   -.138E-13 0.239E-11 -.240E-13   0.000E+00 -.243E-16 0.867E-18   0.198E-13 -.253E-08 -.892E-13
   0.124E-11 0.989E-07 -.525E-11   0.114E-13 -.239E-11 0.240E-13   0.520E-17 0.243E-16 -.867E-18   -.307E-13 0.253E-08 0.758E-13
   0.897E-12 0.345E-10 -.612E-11   -.234E-14 0.772E-15 0.000E+00   0.520E-17 0.000E+00 0.000E+00   -.109E-13 -.611E-13 -.133E-13

 POSITION                                       TOTAL-FORCE (eV/Angst)
      1.23600      0.71360      1.00529        -0.000000      0.000000     -0.000000
      1.23600     -0.71360      3.01586         0.000000     -0.000000      0.000000
    total drift:                                0.000000      0.000000     -0.000000

  FREE ENERGIE OF THE ION-ELECTRON SYSTEM (eV)
  free  energy   TOTEN  =       -14.06777402 eV

  energy  without entropy=      -14.06559261  energy(sigma->0) =      -14.06668331

 total charge

[...]

 magnetization (x)

# of ion       s       p       d       tot
    1       -0.016  -0.056   1.659   1.587
    2       -0.016  -0.056   1.659   1.587
tot         -0.032  -0.113   3.319   3.174