 vasp.6.3.2 27Jun22 (build Aug 12 2022 00:53:59) complex

 executed on               tv2STD date 2024.11.30  16:02:50

 INCAR:
   SYSTEM = Pt-hcc
   NWRITE = 2    write-flag
   ISTART = 0    job   : 0-new, 1-cont, 2-samecut
   ICHARG = 2    charge: 0-wave, 1-file, 2-atom, >10-const
   INIWAV = 1    electr: 0-lowe 1-rand  2-diag
   ENCUT = 450.0     energy cutoff in eV
   PREC = Accurate      normal | accurate
   ADDGRID = .FALSE.  (use fine grid)
   NELM = 100     number of ELM steps
   EDIFF = 1E-06    energy stopping-criterion for ELM
   LREAL = .FALSE.      real-space projection (.FALSE., .TRUE., On, Auto)
   ALGO = Normal     Normal, Fast, Very_Fast
   LWAVE = .FALSE.
   LCHARG = .FALSE.
   NSW = 0       max number of geometry steps
   IBRION = -1     ionic relax: 0-MD, 1-quasi-Newton, 2-CG, 3-Damped MD
   EDIFFG = -0.02  force (eV/A) stopping-criterion for geometry steps
   ISIF = 2     (1:force\=y stress\=trace only ions\=y shape\=n volume\=n)
   ISYM = 1     (1-use symmetry, 0-no symmetry)
   ISMEAR = 0     (-1-Fermi, 1-Methfessel/Paxton)
   SIGMA = 0.05   broadening in eV

 POTCAR:    PAW_PBE Pt_pv 12Dec2005
 POTCAR:    PAW_PBE Pt_pv 12Dec2005
   VRHFIN =Pt: 5ps1d9

   TITEL  = PAW_PBE Pt_pv 12Dec2005
   POMASS =  195.080; ZVAL   =   16.000    mass and valenz
   ENMAX  =  294.607; ENMIN  =  220.955 eV

  PAW_PBE Pt_pv 12Dec2005               :

 POSCAR: Pt
  positions in cartesian coordinates
 exchange correlation table for  LEXCH =        8
   RHO(1)=    0.500       N(1)  =     2000
   RHO(2)=  100.500       N(2)  =     4000

 ion  position               nearest neighbor table
   1  0.000  0.000  0.000-
   2  0.333  0.667  0.500-

  LATTYP: Found a hexagonal cell.
 ALAT       =     2.7600000000
 C/A-ratio  =     1.7355072464

  Lattice vectors:

 A1 = (   2.7600000000,   0.0000000000,   0.0000000000)
 A2 = (  -1.3800000000,   2.3902301144,   0.0000000000)
 A3 = (   0.0000000000,   0.0000000000,   4.7900000000)

Analysis of symmetry for initial positions (statically):
 Subroutine PRICEL returns:
 Original cell was already a primitive cell.

 Routine SETGRP: Setting up the symmetry group for a
 hexagonal supercell.

 Subroutine GETGRP returns: Found 24 space group operations
 (whereof 12 operations were pure point group operations)
 out of a pool of 24 trial point group operations.

The static configuration has the point symmetry D_3h.
 The point group associated with its full space group is D_6h.

Analysis of symmetry for dynamics (positions and initial velocities):
 Subroutine PRICEL returns:
 Original cell was already a primitive cell.

 Routine SETGRP: Setting up the symmetry group for a
 hexagonal supercell.

 Subroutine GETGRP returns: Found 24 space group operations
 (whereof 12 operations were pure point group operations)
 out of a pool of 24 trial point group operations.

The dynamic configuration has the point symmetry D_3h.
 The point group associated with its full space group is D_6h.

 Subroutine INISYM returns: Found 24 space group operations
 (whereof 12 operations are pure point group operations),
 and found     1 'primitive' translations

                                     Primitive cell

  volume of cell :      31.5998

  direct lattice vectors                    reciprocal lattice vectors
     2.760000000  0.000000000  0.000000000     0.362318841  0.209184880  0.000000000
    -1.380000000  2.390230114  0.000000000     0.000000000  0.418369760  0.000000000
     0.000000000  0.000000000  4.790000000     0.000000000  0.000000000  0.208768267

  length of vectors
     2.760000000  2.760000000  4.790000000     0.418369760  0.418369760  0.208768267

  position of ions in fractional coordinates (direct lattice)
     0.000000000  0.000000000  0.000000000
     0.333333333  0.666666667  0.500000000

  ion indices of the primitive-cell ions
   primitive index   ion index
                 1           1
                 2           2

 KPOINTS: Automatic mesh

Automatic generation of k-mesh.
 Grid dimensions read from file:
 generate k-points for:    6    6    4

 Generating k-lattice:

  Cartesian coordinates                     Fractional coordinates (reciprocal lattice)
     0.060386473  0.034864147  0.000000000     0.166666667  0.000000000  0.000000000
     0.000000000  0.069728293  0.000000000     0.000000000  0.166666667  0.000000000
     0.000000000  0.000000000  0.052192067     0.000000000  0.000000000  0.250000000

  Length of vectors
     0.069728293  0.069728293  0.052192067

  Shift w.r.t. Gamma in fractional coordinates (k-lattice)
     0.000000000  0.000000000  0.000000000

 Subroutine IBZKPT returns following result:

 Found     21 irreducible k-points:

 Following reciprocal coordinates:
            Coordinates               Weight
  0.000000  0.000000  0.000000      1.000000
  0.166667  0.000000  0.000000      6.000000
  0.333333  0.000000  0.000000      6.000000
  0.500000 -0.000000  0.000000      3.000000
  0.166667  0.166667  0.000000      6.000000
  0.333333  0.166667  0.000000     12.000000
  0.333333  0.333333  0.000000      2.000000
  0.000000  0.000000  0.250000      2.000000
  0.166667  0.000000  0.250000     12.000000
  0.333333  0.000000  0.250000     12.000000
  0.500000 -0.000000  0.250000      6.000000
  0.166667  0.166667  0.250000     12.000000
  0.333333  0.166667  0.250000     24.000000
  0.333333  0.333333  0.250000      4.000000
  0.000000  0.000000  0.500000      1.000000
  0.166667  0.000000  0.500000      6.000000
  0.333333  0.000000  0.500000      6.000000
  0.500000 -0.000000  0.500000      3.000000
  0.166667  0.166667  0.500000      6.000000
  0.333333  0.166667  0.500000     12.000000
  0.333333  0.333333  0.500000      2.000000

 Following cartesian coordinates:
            Coordinates               Weight
  0.000000  0.000000  0.000000      1.000000
  0.060386  0.034864  0.000000      6.000000
  0.120773  0.069728  0.000000      6.000000
  0.181159  0.104592  0.000000      3.000000
  0.060386  0.104592  0.000000      6.000000
  0.120773  0.139457  0.000000     12.000000
  0.120773  0.209185  0.000000      2.000000
  0.000000  0.000000  0.052192      2.000000
  0.060386  0.034864  0.052192     12.000000
  0.120773  0.069728  0.052192     12.000000
  0.181159  0.104592  0.052192      6.000000
  0.060386  0.104592  0.052192     12.000000
  0.120773  0.139457  0.052192     24.000000
  0.120773  0.209185  0.052192      4.000000
  0.000000  0.000000  0.104384      1.000000
  0.060386  0.034864  0.104384      6.000000
  0.120773  0.069728  0.104384      6.000000
  0.181159  0.104592  0.104384      3.000000
  0.060386  0.104592  0.104384      6.000000
  0.120773  0.139457  0.104384     12.000000
  0.120773  0.209185  0.104384      2.000000

 SYSTEM =  Pt-hcc
 POSCAR =  Pt

 Startparameter for this run:
   NWRITE =      2    write-flag & timer
   PREC   = accura    normal or accurate (medium, high low for compatibility)
   ISTART =      0    job   : 0-new  1-cont  2-samecut
   ICHARG =      2    charge: 1-file 2-atom 10-const
   ISPIN  =      1    spin polarized calculation?
   LNONCOLLINEAR =      F non collinear calculations
   LSORBIT =      F    spin-orbit coupling
   INIWAV =      1    electr: 0-lowe 1-rand  2-diag
   LASPH  =      F    aspherical Exc in radial PAW
 Electronic Relaxation 1
   ENCUT  =  450.0 eV  33.07 Ry    5.75 a.u.   4.77  4.77  8.29*2*pi/ulx,y,z
   ENINI  =  450.0     initial cutoff
   ENAUG  =  527.0 eV  augmentation charge cutoff
   NELM   =    100;   NELMIN=  2; NELMDL= -5     # of ELM steps
   EDIFF  = 0.1E-05   stopping-criterion for ELM
   LREAL  =      F    real-space projection
   NLSPLINE    = F    spline interpolate recip. space projectors
   LCOMPAT=      F    compatible to vasp.4.4
   GGA_COMPAT  = T    GGA compatible to vasp.4.4-vasp.4.6
   LMAXPAW     = -100 max onsite density
   LMAXMIX     =    2 max onsite mixed and CHGCAR
   VOSKOWN=      0    Vosko Wilk Nusair interpolation
   ROPT   =    0.00000
 Ionic relaxation
   EDIFFG = -.2E-01   stopping-criterion for IOM
   NSW    =      0    number of steps for IOM
   NBLOCK =      1;   KBLOCK =      1    inner block; outer block
   IBRION =     -1    ionic relax: 0-MD 1-quasi-New 2-CG
   NFREE  =      0    steps in history (QN), initial steepest desc. (CG)
   ISIF   =      2    stress and relaxation
   IWAVPR =     10    prediction:  0-non 1-charg 2-wave 3-comb
   ISYM   =      1    0-nonsym 1-usesym 2-fastsym
   LCORR  =      T    Harris-Foulkes like correction to forces

   POTIM  = 0.5000    time-step for ionic-motion
   TEIN   =    0.0    initial temperature
   TEBEG  =    0.0;   TEEND  =   0.0 temperature during run
   SMASS  =  -3.00    Nose mass-parameter (am)
   estimated Nose-frequenzy (Omega)   =  0.10E-29 period in steps = 0.13E+47 mass=  -0.174E-27a.u.
   SCALEE = 1.0000    scale energy and forces
   NPACO  =    256;   APACO  = 10.0  distance and # of slots for P.C.
   PSTRESS=    0.0 pullay stress

  Mass of Ions in am
   POMASS = 195.08
  Ionic Valenz
   ZVAL   =  16.00
  Atomic Wigner-Seitz radii
  virtual crystal weights
   VCA    =   1.00
   NELECT =      32.0000    total number of electrons
   NUPDOWN=      -1.0000    fix difference up-down

 DOS related values:
   EMIN   =  10.00;   EMAX   =-10.00  energy-range for DOS
   EFERMI =   0.00
   ISMEAR =     0;   SIGMA  =   0.05  broadening in eV -4-tet -1-fermi 0-gaus

 Electronic relaxation 2 (details)
   IALGO  =     38    algorithm
   LDIAG  =      T    sub-space diagonalisation (order eigenvalues)
   LSUBROT=      F    optimize rotation matrix (better conditioning)
   TURBO    =      0    0=normal 1=particle mesh
   IRESTART =      0    0=no restart 2=restart with 2 vectors
   NREBOOT  =      0    no. of reboots
   NMIN     =      0    reboot dimension
   EREF     =   0.00    reference energy to select bands
   IMIX   =      4    mixing-type and parameters
     AMIX     =   0.40;   BMIX     =  1.00
     AMIX_MAG =   1.60;   BMIX_MAG =  1.00
     AMIN     =   0.10
     WC   =   100.;   INIMIX=   1;  MIXPRE=   1;  MAXMIX= -45

 Intra band minimization:
   WEIMIN = 0.0000     energy-eigenvalue tresh-hold
   EBREAK =  0.10E-07  absolut break condition
   DEPER  =   0.30     relativ break condition

   TIME   =   0.40     timestep for ELM

  volume/ion in A,a.u.               =      15.80       106.62
  Fermi-wavevector in a.u.,A,eV,Ry     =   1.643981  3.106673 36.772093  2.702673
  Thomas-Fermi vector in A             =   2.734024

 Write flags
   LWAVE        =      F    write WAVECAR
   LDOWNSAMPLE  =      F    k-point downsampling of WAVECAR
   LCHARG       =      F    write CHGCAR
   LVTOT        =      F    write LOCPOT, total local potential
   LVHAR        =      F    write LOCPOT, Hartree potential only
   LELF         =      F    write electronic localiz. function (ELF)
   LORBIT       =      0    0 simple, 1 ext, 2 COOP (PROOUT), +10 PAW based schemes

 Dipole corrections
   LMONO  =      F    monopole corrections only (constant potential shift)
   LDIPOL =      F    correct potential (dipole corrections)
   IDIPOL =      0    1-x, 2-y, 3-z, 4-all directions
   EPSILON=  1.0000000 bulk dielectric constant

 Exchange correlation treatment:
   GGA     =    --    GGA type
   VOSKOWN =     0    Vosko Wilk Nusair interpolation
   LHFCALC =     F    Hartree Fock is set to
   LHFONE  =     F    Hartree Fock one center treatment
   AEXX    =    0.0000 exact exchange contribution

 Linear response parameters
   LEPSILON=     F    determine dielectric tensor
   LRPA    =     F    only Hartree local field effects (RPA)
   LNABLA  =     F    use nabla operator in PAW spheres
   LVEL    =     F    velocity operator in full k-point grid
   CSHIFT  =0.1000    complex shift for real part using Kramers Kronig
   OMEGAMAX=  -1.0    maximum frequency
   DEG_THRESHOLD= 0.2000000E-02 threshold for treating states as degnerate
   RTIME   =   -0.100 relaxation time in fs
  (WPLASMAI=    0.000 imaginary part of plasma frequency in eV, 0.658/RTIME)
   DFIELD  = 0.0000000 0.0000000 0.0000000 field for delta impulse in time

  Optional k-point grid parameters
   LKPOINTS_OPT  =     F    use optional k-point grid
   KPOINTS_OPT_MODE=     1    mode for optional k-point grid

 Orbital magnetization related:
   ORBITALMAG=     F  switch on orbital magnetization
   LCHIMAG   =     F  perturbation theory with respect to B field
   DQ        =  0.001000  dq finite difference perturbation B field
   LLRAUG    =     F  two centre corrections for induced B field

 Static calculation
 charge density and potential will be updated during run
 non-spin polarized calculation
 Variant of blocked Davidson
 Davidson routine will perform the subspace rotation
 perform sub-space diagonalisation
    after iterative eigenvector-optimisation
 modified Broyden-mixing scheme, WC =      100.0
 initial mixing is a Kerker type mixing with AMIX =  0.4000 and BMIX =      1.0000
 Hartree-type preconditioning will be used
 using additional bands            8
 reciprocal scheme for non local part
 use partial core corrections
 calculate Harris-corrections to forces
   (improved forces if not selfconsistent)
 use gradient corrections
 use of overlap-Matrix (Vanderbilt PP)
 Gauss-broadening in eV      SIGMA  =   0.05

  energy-cutoff  :      450.00
  volume of cell :       31.60
      direct lattice vectors                 reciprocal lattice vectors
     2.760000000  0.000000000  0.000000000     0.362318841  0.209184880  0.000000000
    -1.380000000  2.390230114  0.000000000     0.000000000  0.418369760  0.000000000
     0.000000000  0.000000000  4.790000000     0.000000000  0.000000000  0.208768267

[...]

 k-points in units of 2pi/SCALE and weight: Automatic mesh
   0.00000000  0.00000000  0.00000000       0.007
   0.06038647  0.03486415  0.00000000       0.042
   0.12077295  0.06972829  0.00000000       0.042
   0.18115942  0.10459244  0.00000000       0.021
   0.06038647  0.10459244  0.00000000       0.042
   0.12077295  0.13945659  0.00000000       0.083
   0.12077295  0.20918488  0.00000000       0.014
   0.00000000  0.00000000  0.05219207       0.014
   0.06038647  0.03486415  0.05219207       0.083
   0.12077295  0.06972829  0.05219207       0.083
   0.18115942  0.10459244  0.05219207       0.042
   0.06038647  0.10459244  0.05219207       0.083
   0.12077295  0.13945659  0.05219207       0.167
   0.12077295  0.20918488  0.05219207       0.028
   0.00000000  0.00000000  0.10438413       0.007
   0.06038647  0.03486415  0.10438413       0.042
   0.12077295  0.06972829  0.10438413       0.042
   0.18115942  0.10459244  0.10438413       0.021
   0.06038647  0.10459244  0.10438413       0.042
   0.12077295  0.13945659  0.10438413       0.083
   0.12077295  0.20918488  0.10438413       0.014

 k-points in reciprocal lattice and weights: Automatic mesh
   0.00000000  0.00000000  0.00000000       0.007
   0.16666667  0.00000000  0.00000000       0.042
   0.33333333  0.00000000  0.00000000       0.042
   0.50000000 -0.00000000  0.00000000       0.021
   0.16666667  0.16666667  0.00000000       0.042
   0.33333333  0.16666667  0.00000000       0.083
   0.33333333  0.33333333  0.00000000       0.014
   0.00000000  0.00000000  0.25000000       0.014
   0.16666667  0.00000000  0.25000000       0.083
   0.33333333  0.00000000  0.25000000       0.083
   0.50000000 -0.00000000  0.25000000       0.042
   0.16666667  0.16666667  0.25000000       0.083
   0.33333333  0.16666667  0.25000000       0.167
   0.33333333  0.33333333  0.25000000       0.028
   0.00000000  0.00000000  0.50000000       0.007
   0.16666667  0.00000000  0.50000000       0.042
   0.33333333  0.00000000  0.50000000       0.042
   0.50000000 -0.00000000  0.50000000       0.021
   0.16666667  0.16666667  0.50000000       0.042
   0.33333333  0.16666667  0.50000000       0.083
   0.33333333  0.33333333  0.50000000       0.014

 position of ions in fractional coordinates (direct lattice)
   0.00000000  0.00000000  0.00000000
   0.33333333  0.66666667  0.50000000

 position of ions in cartesian coordinates  (Angst):
   0.00000000  0.00000000  0.00000000
   0.00000000  1.59348674  2.39500000

 k-point   1 :   0.0000 0.0000 0.0000  plane waves:     713
 k-point   2 :   0.1667 0.0000 0.0000  plane waves:     690
 k-point   3 :   0.3333 0.0000 0.0000  plane waves:     692
 k-point   4 :   0.5000-0.0000 0.0000  plane waves:     700
 k-point   5 :   0.1667 0.1667 0.0000  plane waves:     689
 k-point   6 :   0.3333 0.1667 0.0000  plane waves:     681
 k-point   7 :   0.3333 0.3333 0.0000  plane waves:     681
 k-point   8 :   0.0000 0.0000 0.2500  plane waves:     689
 k-point   9 :   0.1667 0.0000 0.2500  plane waves:     683
 k-point  10 :   0.3333 0.0000 0.2500  plane waves:     689
 k-point  11 :   0.5000-0.0000 0.2500  plane waves:     688
 k-point  12 :   0.1667 0.1667 0.2500  plane waves:     685
 k-point  13 :   0.3333 0.1667 0.2500  plane waves:     684
 k-point  14 :   0.3333 0.3333 0.2500  plane waves:     675
 k-point  15 :   0.0000 0.0000 0.5000  plane waves:     688
 k-point  16 :   0.1667 0.0000 0.5000  plane waves:     684
 k-point  17 :   0.3333 0.0000 0.5000  plane waves:     680
 k-point  18 :   0.5000-0.0000 0.5000  plane waves:     676
 k-point  19 :   0.1667 0.1667 0.5000  plane waves:     682
 k-point  20 :   0.3333 0.1667 0.5000  plane waves:     694
 k-point  21 :   0.3333 0.3333 0.5000  plane waves:     690

 maximum and minimum number of plane-waves per node :       713      675

 maximum number of plane-waves:       713
 maximum index in each direction:
   IXMAX=    4   IYMAX=    4   IZMAX=    8
   IXMIN=   -5   IYMIN=   -5   IZMIN=   -8

 serial   3D FFT for wavefunctions
 parallel 3D FFT for charge:
    minimum data exchange during FFTs selected (reduces bandwidth)

 Broyden mixing: mesh for mixing (old mesh)
   NGX =  9   NGY =  9   NGZ = 17
  (NGX  = 40   NGY  = 40   NGZ  = 72)
  gives a total of   1377 points

 initial charge density was supplied:
 charge density of overlapping atoms calculated
 number of electron      32.0000000 magnetization
 keeping initial charge density in first step

 Maximum index for augmentation-charges          730 (set IRDMAX)

 First call to EWALD:  gamma=   0.561
 Maximum number of real-space cells 3x 3x 2
 Maximum number of reciprocal cells 2x 2x 4

--------------------------------------- Iteration      1(   1)  ---------------------------------------

 eigenvalue-minimisations  :  1008
 total energy-change (2. order) : 0.1440123E+03  (-0.2331564E+04)
 number of electron      32.0000000 magnetization
 augmentation part       32.0000000 magnetization

 Free energy of the ion-electron system (eV)
  alpha Z        PSCENC =       303.71314961
  Ewald energy   TEWEN  =     -4240.69024974
  -Hartree energ DENC   =      -819.48907223
  -exchange      EXHF   =         0.00000000
  -V(xc)+E(xc)   XCENC  =       127.32804754
  PAW double counting   =      4131.50523274    -4061.67189606
  entropy T*S    EENTRO =        -0.00747441
  eigenvalues    EBANDS =      -153.10513444
  atomic energy  EATOM  =      4856.42966544
  Solvation  Ediel_sol  =         0.00000000
  free energy    TOTEN  =       144.01226846 eV

  energy without entropy =      144.01974287  energy(sigma->0) =      144.01600567

[...]

 eigenvalue-minimisations  :  1032
 total energy-change (2. order) :-0.1554916E+03  (-0.1544884E+03)
 number of electron      32.0000000 magnetization
 augmentation part       32.0000000 magnetization

[...]

 Broyden mixing:
  rms(total) = 0.19623E+01    rms(broyden)= 0.19621E+01
  rms(prec ) = 0.21879E+01
  weight for this iteration     100.00

[...]

 eigenvalues of (default mixing * dielectric matrix)
  average eigenvalue GAMMA=   1.3930
  1.3930

[...]

 eigenvalue-minimisations  :  1200
 total energy-change (2. order) :-0.1217731E-04  (-0.1523308E-05)
 number of electron      31.9999996 magnetization
 augmentation part        8.2252268 magnetization

 Broyden mixing:
  rms(total) = 0.76537E-03    rms(broyden)= 0.76508E-03
  rms(prec ) = 0.85202E-03
  weight for this iteration     100.00

 eigenvalues of (default mixing * dielectric matrix)
  average eigenvalue GAMMA=   1.6759
  2.6030  2.3030  0.9826  1.3076  1.1831

[...]

--------------------------------------- Iteration      1(  11)  ---------------------------------------

 eigenvalue-minimisations  :   720
 total energy-change (2. order) : 0.2670822E-06  (-0.3200396E-07)
 number of electron      31.9999996 magnetization
 augmentation part        8.2252268 magnetization

 Free energy of the ion-electron system (eV)
  alpha Z        PSCENC =       303.71314961
  Ewald energy   TEWEN  =     -4240.69024974
  -Hartree energ DENC   =      -780.38629852
  -exchange      EXHF   =         0.00000000
  -V(xc)+E(xc)   XCENC  =       125.60685376
  PAW double counting   =      4620.22183471    -4555.48613185
  entropy T*S    EENTRO =        -0.00866241
  eigenvalues    EBANDS =      -341.51798961
  atomic energy  EATOM  =      4856.42966544
  Solvation  Ediel_sol  =         0.00000000
  free energy    TOTEN  =       -12.11782860 eV

  energy without entropy =      -12.10916620  energy(sigma->0) =      -12.11349740

 average (electrostatic) potential at core
  the test charge radii are     0.9952
  (the norm of the test charge is              1.0000)
       1 -89.5012       2 -89.5012

 E-fermi :  11.0996     XC(G=0): -13.7008     alpha+bet :-16.6031

 Fermi energy:        11.0996205106

 k-point     1 :       0.0000    0.0000    0.0000
  band No.  band energies     occupation
      1     -41.5447      2.00000
      2     -41.2919      2.00000
      3     -41.2919      2.00000
      4     -41.2517      2.00000
      5     -41.2517      2.00000
      6     -41.2164      2.00000
      7       1.4232      2.00000
      8       4.0802      2.00000
      9       7.1649      2.00000
     10       7.7423      2.00000
     11       7.7423      2.00000
     12       8.1080      2.00000
     13       8.1080      2.00000
     14       9.3123      2.00000
     15       9.3123      2.00000
     16      10.3930      2.00000
     17      10.8907      2.00000
     18      10.8907      2.00000
     19      15.7649      0.00000
     20      26.2612      0.00000
     21      26.8057      0.00000
     22      28.4143      0.00000
     23      32.1373      0.00000
     24      32.1373      0.00000

[...]

 k-point    21 :       0.3333    0.3333    0.5000
  band No.  band energies     occupation
      1     -41.5664      2.00000
      2     -41.5664      2.00000
      3     -41.5349      2.00000
      4     -41.5349      2.00000
      5     -41.2957      2.00000
      6     -41.2957      2.00000
      7       6.0340      2.00000
      8       6.0340      2.00000
      9       6.6611      2.00000
     10       6.6611      2.00000
     11       7.5118      2.00000
     12       7.5118      2.00000
     13       8.7454      2.00000
     14       8.7454      2.00000
     15      10.9299      2.00000
     16      10.9299      2.00000
     17      17.6682      0.00000
     18      17.6682      0.00000
     19      17.7324      0.00000
     20      17.7324      0.00000
     21      19.9326      0.00000
     22      19.9326      0.00000
     23      28.6445      0.00000
     24      28.6445      0.00000

 soft charge-density along one line, spin component           1
         0         1         2         3         4         5         6         7         8         9
 total charge-density along one line

------------------------ aborting loop because EDIFF is reached ----------------------------------------

  FORCE on cell =-STRESS in cart. coord.  units (eV):
  Direction    XX          YY          ZZ          XY          YZ          ZX
  Alpha Z   303.71315   303.71315   303.71315
  Ewald   -1374.27429 -1374.27429 -1492.14368     0.00000     0.00000    -0.00000
  Hartree   278.66606   278.66606   223.04939    -0.00000    -0.00000    -0.00000
  E(xc)    -170.73304  -170.73305  -170.96575    -0.00000    -0.00000    -0.00000
  Local     180.21331   180.21329   347.83683    -0.00002    -0.00000    -0.00000
  n-local   -59.38540   -59.32421   -63.33860   -11.17365     2.65742     2.56784
  augment   145.87391   145.87393   148.48885     0.00001    -0.00000    -0.00000
  Kinetic   698.26068   692.76002   702.33008   -16.70589     2.59371     1.84203
  Fock        0.00000     0.00000     0.00000     0.00000     0.00000     0.00000
  Total      -0.38536    -0.38536    -1.02973    -0.00000     0.00000     0.00000
  in kB     -19.53839   -19.53839   -52.20953    -0.00000     0.00000     0.00000

 VOLUME and BASIS-vectors are now :
  energy-cutoff  :      450.00
  volume of cell :       31.60
      direct lattice vectors                 reciprocal lattice vectors
     2.760000000  0.000000000  0.000000000     0.362318841  0.209184880  0.000000000
    -1.380000000  2.390230114  0.000000000     0.000000000  0.418369760  0.000000000
     0.000000000  0.000000000  4.790000000     0.000000000  0.000000000  0.208768267

  length of vectors
     2.760000000  2.760000000  4.790000000     0.418369760  0.418369760  0.208768267

 FORCES acting on ions
    electron-ion (+dipol)            ewald-force                    non-local-force                 convergence-correction
   0.375E-06 -.217E-06 -.817E-14   0.179E-11 -.111E-11 -.683E-13   0.000E+00 0.278E-16 0.000E+00   0.862E-08 -.498E-08 -.222E-13
   -.288E-06 0.167E-06 -.294E-11   -.176E-11 0.110E-11 0.683E-13   0.694E-17 -.278E-16 0.000E+00   -.860E-08 0.496E-08 -.223E-13
   0.866E-07 -.500E-07 -.295E-11   0.219E-13 -.314E-14 0.000E+00   0.694E-17 0.000E+00 0.000E+00   0.267E-10 -.154E-10 -.445E-13

 POSITION                                       TOTAL-FORCE (eV/Angst)
      0.00000      0.00000      0.00000        -0.000000      0.000000      0.000000
      0.00000      1.59349      2.39500         0.000000     -0.000000      0.000000
    total drift:                                0.000000     -0.000000     -0.000000

  FREE ENERGIE OF THE ION-ELECTRON SYSTEM (eV)
  free  energy   TOTEN  =       -12.11782860 eV

  energy  without entropy=      -12.10916620  energy(sigma->0) =      -12.11349740