 vasp.6.3.2 27Jun22 (build Aug 12 2022 00:53:59) complex

 executed on               tv2STD date 2024.11.30  15:35:36

 INCAR:
   SYSTEM = Co-hcc
   NWRITE = 2    write-flag
   ISTART = 0    job   : 0-new, 1-cont, 2-samecut
   ICHARG = 2    charge: 0-wave, 1-file, 2-atom, >10-const
   INIWAV = 1    electr: 0-lowe 1-rand  2-diag
   ENCUT = 400     energy cutoff in eV
   PREC = Accurate      normal | accurate
   ADDGRID = .FALSE.  (use fine grid)
   NELM = 100     number of ELM steps
   EDIFF = 1E-06    energy stopping-criterion for ELM
   LREAL = .F.      real-space projection (.FALSE., .TRUE., On, Auto)
   ALGO = Normal     Normal, Fast, Very_Fast
   LWAVE = .FALSE.
   LCHARG = .FALSE.
   NSW = 0       max number of geometry steps
   IBRION = -1     ionic relax: 0-MD, 1-quasi-Newton, 2-CG, 3-Damped MD
   EDIFFG = -0.02  force (eV/A) stopping-criterion for geometry steps
   ISIF = 2     (1:force\=y stress\=trace only ions\=y shape\=n volume\=n)
   ISYM = 1     (1-use symmetry, 0-no symmetry)
   ISMEAR = 0     (-1-Fermi, 1-Methfessel/Paxton)
   SIGMA = 0.05   broadening in eV
   NPAR = 4
   ISPIN = 2
   MAGMOM = 2*3

 POTCAR:    PAW_PBE Co 02Aug2007
 POTCAR:    PAW_PBE Co 02Aug2007
   VRHFIN =Co: d8 s1

   TITEL  = PAW_PBE Co 02Aug2007
   POMASS =   58.933; ZVAL   =    9.000    mass and valenz
   ENMAX  =  267.968; ENMIN  =  200.976 eV

  PAW_PBE Co 02Aug2007                  :

 POSCAR: Co
  positions in cartesian coordinates
 exchange correlation table for  LEXCH =        8
   RHO(1)=    0.500       N(1)  =     2000
   RHO(2)=  100.500       N(2)  =     4000

 ion  position               nearest neighbor table
   1  0.000  0.000  0.000-
   2  0.333  0.667  0.500-

  LATTYP: Found a hexagonal cell.
 ALAT       =     2.4700000000
 C/A-ratio  =     3.2753036437

  Lattice vectors:

 A1 = (   2.4700000000,   0.0000000000,   0.0000000000)
 A2 = (  -1.2350000000,   2.1390827473,   0.0000000000)
 A3 = (   0.0000000000,   0.0000000000,   8.0900000000)

Analysis of symmetry for initial positions (statically):
 Subroutine PRICEL returns:
 Original cell was already a primitive cell.

 Routine SETGRP: Setting up the symmetry group for a
 hexagonal supercell.

 Subroutine GETGRP returns: Found 24 space group operations
 (whereof 12 operations were pure point group operations)
 out of a pool of 24 trial point group operations.

The static configuration has the point symmetry D_3h.
 The point group associated with its full space group is D_6h.

Analysis of symmetry for dynamics (positions and initial velocities):
 Subroutine PRICEL returns:
 Original cell was already a primitive cell.

[...]

The dynamic configuration has the point symmetry D_3h.
 The point group associated with its full space group is D_6h.

Analysis of structural, dynamic, and magnetic symmetry:
 Subroutine PRICEL returns:
 Original cell was already a primitive cell.

 Routine SETGRP: Setting up the symmetry group for a
 hexagonal supercell.

 Subroutine GETGRP returns: Found 24 space group operations
 (whereof 12 operations were pure point group operations)
 out of a pool of 24 trial point group operations.

The overall configuration has the point symmetry D_3h.
 The point group associated with its full space group is D_6h.

 Subroutine INISYM returns: Found 24 space group operations
 (whereof 12 operations are pure point group operations),
 and found     1 'primitive' translations

                                     Primitive cell

  volume of cell :      42.7438

  direct lattice vectors                    reciprocal lattice vectors
     2.470000000  0.000000000  0.000000000     0.404858300  0.233745048  0.000000000
    -1.235000000  2.139082747  0.000000000     0.000000000  0.467490097  0.000000000
     0.000000000  0.000000000  8.090000000     0.000000000  0.000000000  0.123609394

  length of vectors
     2.470000000  2.470000000  8.090000000     0.467490097  0.467490097  0.123609394

  position of ions in fractional coordinates (direct lattice)
     0.000000000  0.000000000  0.000000000
     0.333333333  0.666666667  0.500000000

  ion indices of the primitive-cell ions
   primitive index   ion index
                 1           1
                 2           2

 KPOINTS: Automatic mesh

Automatic generation of k-mesh.
 Grid dimensions read from file:
 generate k-points for:    6    6    4

 Generating k-lattice:

  Cartesian coordinates                     Fractional coordinates (reciprocal lattice)
     0.067476383  0.038957508  0.000000000     0.166666667  0.000000000  0.000000000
     0.000000000  0.077915016  0.000000000     0.000000000  0.166666667  0.000000000
     0.000000000  0.000000000  0.030902349     0.000000000  0.000000000  0.250000000

  Length of vectors
     0.077915016  0.077915016  0.030902349

  Shift w.r.t. Gamma in fractional coordinates (k-lattice)
     0.000000000  0.000000000  0.000000000

 Subroutine IBZKPT returns following result:

 Found     21 irreducible k-points:

 Following reciprocal coordinates:
            Coordinates               Weight
  0.000000  0.000000  0.000000      1.000000
  0.166667 -0.000000  0.000000      6.000000
  0.333333 -0.000000  0.000000      6.000000
  0.500000 -0.000000  0.000000      3.000000
  0.166667  0.166667  0.000000      6.000000
  0.333333  0.166667  0.000000     12.000000
  0.333333  0.333333  0.000000      2.000000
  0.000000  0.000000  0.250000      2.000000
  0.166667 -0.000000  0.250000     12.000000
  0.333333 -0.000000  0.250000     12.000000
  0.500000 -0.000000  0.250000      6.000000
  0.166667  0.166667  0.250000     12.000000
  0.333333  0.166667  0.250000     24.000000
  0.333333  0.333333  0.250000      4.000000
  0.000000  0.000000  0.500000      1.000000
  0.166667 -0.000000  0.500000      6.000000
  0.333333 -0.000000  0.500000      6.000000
  0.500000 -0.000000  0.500000      3.000000
  0.166667  0.166667  0.500000      6.000000
  0.333333  0.166667  0.500000     12.000000
  0.333333  0.333333  0.500000      2.000000

 Following cartesian coordinates:
            Coordinates               Weight
  0.000000  0.000000  0.000000      1.000000
  0.067476  0.038958  0.000000      6.000000
  0.134953  0.077915  0.000000      6.000000
  0.202429  0.116873  0.000000      3.000000
  0.067476  0.116873  0.000000      6.000000
  0.134953  0.155830  0.000000     12.000000
  0.134953  0.233745  0.000000      2.000000
  0.000000  0.000000  0.030902      2.000000
  0.067476  0.038958  0.030902     12.000000
  0.134953  0.077915  0.030902     12.000000
  0.202429  0.116873  0.030902      6.000000
  0.067476  0.116873  0.030902     12.000000
  0.134953  0.155830  0.030902     24.000000
  0.134953  0.233745  0.030902      4.000000
  0.000000  0.000000  0.061805      1.000000
  0.067476  0.038958  0.061805      6.000000
  0.134953  0.077915  0.061805      6.000000
  0.202429  0.116873  0.061805      3.000000
  0.067476  0.116873  0.061805      6.000000
  0.134953  0.155830  0.061805     12.000000
  0.134953  0.233745  0.061805      2.000000

 SYSTEM =  Co-hcc
 POSCAR =  Co

 Startparameter for this run:
   NWRITE =      2    write-flag & timer
   PREC   = accura    normal or accurate (medium, high low for compatibility)
   ISTART =      0    job   : 0-new  1-cont  2-samecut
   ICHARG =      2    charge: 1-file 2-atom 10-const
   ISPIN  =      2    spin polarized calculation?
   LNONCOLLINEAR =      F non collinear calculations
   LSORBIT =      F    spin-orbit coupling
   INIWAV =      1    electr: 0-lowe 1-rand  2-diag
   LASPH  =      F    aspherical Exc in radial PAW
 Electronic Relaxation 1
   ENCUT  =  400.0 eV  29.40 Ry    5.42 a.u.   4.03  4.03 13.19*2*pi/ulx,y,z
   ENINI  =  400.0     initial cutoff
   ENAUG  =  477.8 eV  augmentation charge cutoff
   NELM   =    100;   NELMIN=  2; NELMDL= -5     # of ELM steps
   EDIFF  = 0.1E-05   stopping-criterion for ELM
   LREAL  =      F    real-space projection
   NLSPLINE    = F    spline interpolate recip. space projectors
   LCOMPAT=      F    compatible to vasp.4.4
   GGA_COMPAT  = T    GGA compatible to vasp.4.4-vasp.4.6
   LMAXPAW     = -100 max onsite density
   LMAXMIX     =    2 max onsite mixed and CHGCAR
   VOSKOWN=      0    Vosko Wilk Nusair interpolation
   ROPT   =    0.00000
 Ionic relaxation
   EDIFFG = -.2E-01   stopping-criterion for IOM
   NSW    =      0    number of steps for IOM
   NBLOCK =      1;   KBLOCK =      1    inner block; outer block
   IBRION =     -1    ionic relax: 0-MD 1-quasi-New 2-CG
   NFREE  =      0    steps in history (QN), initial steepest desc. (CG)
   ISIF   =      2    stress and relaxation
   IWAVPR =     10    prediction:  0-non 1-charg 2-wave 3-comb
   ISYM   =      1    0-nonsym 1-usesym 2-fastsym
   LCORR  =      T    Harris-Foulkes like correction to forces

   POTIM  = 0.5000    time-step for ionic-motion
   TEIN   =    0.0    initial temperature
   TEBEG  =    0.0;   TEEND  =   0.0 temperature during run
   SMASS  =  -3.00    Nose mass-parameter (am)
   estimated Nose-frequenzy (Omega)   =  0.10E-29 period in steps = 0.13E+47 mass=  -0.139E-27a.u.
   SCALEE = 1.0000    scale energy and forces
   NPACO  =    256;   APACO  = 10.0  distance and # of slots for P.C.
   PSTRESS=    0.0 pullay stress

  Mass of Ions in am
   POMASS =  58.93
  Ionic Valenz
   ZVAL   =   9.00
  Atomic Wigner-Seitz radii
  virtual crystal weights
   VCA    =   1.00
   NELECT =      18.0000    total number of electrons
   NUPDOWN=      -1.0000    fix difference up-down

 DOS related values:
   EMIN   =  10.00;   EMAX   =-10.00  energy-range for DOS
   EFERMI =   0.00
   ISMEAR =     0;   SIGMA  =   0.05  broadening in eV -4-tet -1-fermi 0-gaus

 Electronic relaxation 2 (details)
   IALGO  =     38    algorithm
   LDIAG  =      T    sub-space diagonalisation (order eigenvalues)
   LSUBROT=      F    optimize rotation matrix (better conditioning)
   TURBO    =      0    0=normal 1=particle mesh
   IRESTART =      0    0=no restart 2=restart with 2 vectors
   NREBOOT  =      0    no. of reboots
   NMIN     =      0    reboot dimension
   EREF     =   0.00    reference energy to select bands
   IMIX   =      4    mixing-type and parameters
     AMIX     =   0.40;   BMIX     =  1.00
     AMIX_MAG =   1.60;   BMIX_MAG =  1.00
     AMIN     =   0.10
     WC   =   100.;   INIMIX=   1;  MIXPRE=   1;  MAXMIX= -45

 Intra band minimization:
   WEIMIN = 0.0000     energy-eigenvalue tresh-hold
   EBREAK =  0.16E-07  absolut break condition
   DEPER  =   0.30     relativ break condition

   TIME   =   0.40     timestep for ELM

  volume/ion in A,a.u.               =      21.37       144.22
  Fermi-wavevector in a.u.,A,eV,Ry     =   1.227085  2.318854 20.486804  1.505738
  Thomas-Fermi vector in A             =   2.362062

 Write flags
   LWAVE        =      F    write WAVECAR
   LDOWNSAMPLE  =      F    k-point downsampling of WAVECAR
   LCHARG       =      F    write CHGCAR
   LVTOT        =      F    write LOCPOT, total local potential
   LVHAR        =      F    write LOCPOT, Hartree potential only
   LELF         =      F    write electronic localiz. function (ELF)
   LORBIT       =      0    0 simple, 1 ext, 2 COOP (PROOUT), +10 PAW based schemes

 Dipole corrections
   LMONO  =      F    monopole corrections only (constant potential shift)
   LDIPOL =      F    correct potential (dipole corrections)
   IDIPOL =      0    1-x, 2-y, 3-z, 4-all directions
   EPSILON=  1.0000000 bulk dielectric constant

 Exchange correlation treatment:
   GGA     =    --    GGA type
   VOSKOWN =     0    Vosko Wilk Nusair interpolation
   LHFCALC =     F    Hartree Fock is set to
   LHFONE  =     F    Hartree Fock one center treatment
   AEXX    =    0.0000 exact exchange contribution

 Linear response parameters
   LEPSILON=     F    determine dielectric tensor
   LRPA    =     F    only Hartree local field effects (RPA)
   LNABLA  =     F    use nabla operator in PAW spheres
   LVEL    =     F    velocity operator in full k-point grid
   CSHIFT  =0.1000    complex shift for real part using Kramers Kronig
   OMEGAMAX=  -1.0    maximum frequency
   DEG_THRESHOLD= 0.2000000E-02 threshold for treating states as degnerate
   RTIME   =   -0.100 relaxation time in fs
  (WPLASMAI=    0.000 imaginary part of plasma frequency in eV, 0.658/RTIME)
   DFIELD  = 0.0000000 0.0000000 0.0000000 field for delta impulse in time

  Optional k-point grid parameters
   LKPOINTS_OPT  =     F    use optional k-point grid
   KPOINTS_OPT_MODE=     1    mode for optional k-point grid

 Orbital magnetization related:
   ORBITALMAG=     F  switch on orbital magnetization
   LCHIMAG   =     F  perturbation theory with respect to B field
   DQ        =  0.001000  dq finite difference perturbation B field
   LLRAUG    =     F  two centre corrections for induced B field

 Static calculation
 charge density and potential will be updated during run
 spin polarized calculation
 Variant of blocked Davidson
 Davidson routine will perform the subspace rotation
 perform sub-space diagonalisation
    after iterative eigenvector-optimisation
 modified Broyden-mixing scheme, WC =      100.0
 initial mixing is a Kerker type mixing with AMIX =  0.4000 and BMIX =      1.0000
 Hartree-type preconditioning will be used
 using additional bands            7
 reciprocal scheme for non local part
 use partial core corrections
 calculate Harris-corrections to forces
   (improved forces if not selfconsistent)
 use gradient corrections
 use of overlap-Matrix (Vanderbilt PP)
 Gauss-broadening in eV      SIGMA  =   0.05

  energy-cutoff  :      400.00
  volume of cell :       42.74
      direct lattice vectors                 reciprocal lattice vectors
     2.470000000  0.000000000  0.000000000     0.404858300  0.233745048  0.000000000
    -1.235000000  2.139082747  0.000000000     0.000000000  0.467490097  0.000000000
     0.000000000  0.000000000  8.090000000     0.000000000  0.000000000  0.123609394

[...]

 k-points in units of 2pi/SCALE and weight: Automatic mesh
   0.00000000  0.00000000  0.00000000       0.007
   0.06747638  0.03895751  0.00000000       0.042
   0.13495277  0.07791502  0.00000000       0.042
   0.20242915  0.11687252  0.00000000       0.021
   0.06747638  0.11687252  0.00000000       0.042
   0.13495277  0.15583003  0.00000000       0.083
   0.13495277  0.23374505  0.00000000       0.014
   0.00000000  0.00000000  0.03090235       0.014
   0.06747638  0.03895751  0.03090235       0.083
   0.13495277  0.07791502  0.03090235       0.083
   0.20242915  0.11687252  0.03090235       0.042
   0.06747638  0.11687252  0.03090235       0.083
   0.13495277  0.15583003  0.03090235       0.167
   0.13495277  0.23374505  0.03090235       0.028
   0.00000000  0.00000000  0.06180470       0.007
   0.06747638  0.03895751  0.06180470       0.042
   0.13495277  0.07791502  0.06180470       0.042
   0.20242915  0.11687252  0.06180470       0.021
   0.06747638  0.11687252  0.06180470       0.042
   0.13495277  0.15583003  0.06180470       0.083
   0.13495277  0.23374505  0.06180470       0.014

 k-points in reciprocal lattice and weights: Automatic mesh
   0.00000000  0.00000000  0.00000000       0.007
   0.16666667 -0.00000000  0.00000000       0.042
   0.33333333 -0.00000000  0.00000000       0.042
   0.50000000 -0.00000000  0.00000000       0.021
   0.16666667  0.16666667  0.00000000       0.042
   0.33333333  0.16666667  0.00000000       0.083
   0.33333333  0.33333333  0.00000000       0.014
   0.00000000  0.00000000  0.25000000       0.014
   0.16666667 -0.00000000  0.25000000       0.083
   0.33333333 -0.00000000  0.25000000       0.083
   0.50000000 -0.00000000  0.25000000       0.042
   0.16666667  0.16666667  0.25000000       0.083
   0.33333333  0.16666667  0.25000000       0.167
   0.33333333  0.33333333  0.25000000       0.028
   0.00000000  0.00000000  0.50000000       0.007
   0.16666667 -0.00000000  0.50000000       0.042
   0.33333333 -0.00000000  0.50000000       0.042
   0.50000000 -0.00000000  0.50000000       0.021
   0.16666667  0.16666667  0.50000000       0.042
   0.33333333  0.16666667  0.50000000       0.083
   0.33333333  0.33333333  0.50000000       0.014

 position of ions in fractional coordinates (direct lattice)
   0.00000000  0.00000000  0.00000000
   0.33333333  0.66666667  0.50000000

 position of ions in cartesian coordinates  (Angst):
   0.00000000  0.00000000  0.00000000
   0.00000000  1.42605516  4.04500000

 k-point   1 :   0.0000 0.0000 0.0000  plane waves:     741
 k-point   2 :   0.1667-0.0000 0.0000  plane waves:     767
 k-point   3 :   0.3333-0.0000 0.0000  plane waves:     773
 k-point   4 :   0.5000-0.0000 0.0000  plane waves:     766
 k-point   5 :   0.1667 0.1667 0.0000  plane waves:     776
 k-point   6 :   0.3333 0.1667 0.0000  plane waves:     787
 k-point   7 :   0.3333 0.3333 0.0000  plane waves:     780
 k-point   8 :   0.0000 0.0000 0.2500  plane waves:     746
 k-point   9 :   0.1667-0.0000 0.2500  plane waves:     754
 k-point  10 :   0.3333-0.0000 0.2500  plane waves:     780
 k-point  11 :   0.5000-0.0000 0.2500  plane waves:     776
 k-point  12 :   0.1667 0.1667 0.2500  plane waves:     779
 k-point  13 :   0.3333 0.1667 0.2500  plane waves:     783
 k-point  14 :   0.3333 0.3333 0.2500  plane waves:     774
 k-point  15 :   0.0000 0.0000 0.5000  plane waves:     770
 k-point  16 :   0.1667-0.0000 0.5000  plane waves:     758
 k-point  17 :   0.3333-0.0000 0.5000  plane waves:     774
 k-point  18 :   0.5000-0.0000 0.5000  plane waves:     768
 k-point  19 :   0.1667 0.1667 0.5000  plane waves:     782
 k-point  20 :   0.3333 0.1667 0.5000  plane waves:     784
 k-point  21 :   0.3333 0.3333 0.5000  plane waves:     768

 maximum and minimum number of plane-waves per node :       141      117

 maximum number of plane-waves:       787
 maximum index in each direction:
   IXMAX=    4   IYMAX=    4   IZMAX=   13
   IXMIN=   -4   IYMIN=   -4   IZMIN=  -13

 parallel 3D FFT for wavefunctions:
    minimum data exchange during FFTs selected (reduces bandwidth)
 parallel 3D FFT for charge:
    minimum data exchange during FFTs selected (reduces bandwidth)

 Broyden mixing: mesh for mixing (old mesh)
   NGX =  9   NGY =  9   NGZ = 27
  (NGX  = 32   NGY  = 32   NGZ  =108)
  gives a total of   2187 points

 initial charge density was supplied:
 charge density of overlapping atoms calculated
 number of electron      18.0000000 magnetization       6.0000000
 keeping initial charge density in first step

 Maximum index for augmentation-charges         1022 (set IRDMAX)

 First call to EWALD:  gamma=   0.507
 Maximum number of real-space cells 4x 4x 1
 Maximum number of reciprocal cells 2x 2x 6

--------------------------------------- Iteration      1(   1)  ---------------------------------------

 eigenvalue-minimisations  :  1352
 total energy-change (2. order) : 0.7691675E+02  (-0.6570183E+03)
 number of electron      18.0000000 magnetization       6.0000000
 augmentation part       18.0000000 magnetization       6.0000000

 Free energy of the ion-electron system (eV)
  alpha Z        PSCENC =        39.63868225
  Ewald energy   TEWEN  =     -1054.56880693
  -Hartree energ DENC   =      -595.60964206
  -exchange      EXHF   =         0.00000000
  -V(xc)+E(xc)   XCENC  =        33.36921587
  PAW double counting   =      1439.98163886    -1545.88690193
  entropy T*S    EENTRO =        -0.00407067
  eigenvalues    EBANDS =       133.28116142
  atomic energy  EATOM  =      1626.71546820
  Solvation  Ediel_sol  =         0.00000000
  free energy    TOTEN  =        76.91674501 eV

  energy without entropy =       76.92081568  energy(sigma->0) =       76.91878035

[...]

 eigenvalue-minimisations  :  1360
 total energy-change (2. order) :-0.8757324E+02  (-0.8093812E+02)
 number of electron      18.0000000 magnetization       6.0000000
 augmentation part       18.0000000 magnetization       6.0000000

[...]

 Broyden mixing:
  rms(total) = 0.12698E+01    rms(broyden)= 0.12698E+01
  rms(prec ) = 0.17290E+01
  weight for this iteration     100.00

[...]

 eigenvalues of (default mixing * dielectric matrix)
  average eigenvalue GAMMA=   0.3982
  0.3982

[...]

 eigenvalue-minimisations  :  1424
 total energy-change (2. order) :-0.6553238E-05  (-0.5689620E-06)
 number of electron      17.9999991 magnetization       4.1528593
 augmentation part       10.2740578 magnetization       3.4620421

 Broyden mixing:
  rms(total) = 0.53631E-03    rms(broyden)= 0.53572E-03
  rms(prec ) = 0.62861E-03
  weight for this iteration     100.00

 eigenvalues of (default mixing * dielectric matrix)
  average eigenvalue GAMMA=   1.2121
  2.5260  2.5260  1.0104  1.0104  1.4522  1.3330  0.8551  0.7863  0.5546  0.6396
  0.6396

[...]

--------------------------------------- Iteration      1(  17)  ---------------------------------------

 eigenvalue-minimisations  :   776
 total energy-change (2. order) : 0.2688648E-06  (-0.6490062E-07)
 number of electron      17.9999991 magnetization       4.1528593
 augmentation part       10.2740578 magnetization       3.4620421

 Free energy of the ion-electron system (eV)
  alpha Z        PSCENC =        39.63868225
  Ewald energy   TEWEN  =     -1054.56880693
  -Hartree energ DENC   =      -566.37653344
  -exchange      EXHF   =         0.00000000
  -V(xc)+E(xc)   XCENC  =        31.44746225
  PAW double counting   =      1612.56599938    -1718.50654837
  entropy T*S    EENTRO =        -0.00580148
  eigenvalues    EBANDS =        17.84957317
  atomic energy  EATOM  =      1626.71546820
  Solvation  Ediel_sol  =         0.00000000
  free energy    TOTEN  =       -11.24050497 eV

  energy without entropy =      -11.23470349  energy(sigma->0) =      -11.23760423

 average (electrostatic) potential at core
  the test charge radii are     1.0452
  (the norm of the test charge is              1.0000)
       1 -85.5693       2 -85.5693

 E-fermi :   3.0182     XC(G=0):  -9.3952     alpha+bet : -8.9999

 Fermi energy:         3.0181937008

 spin component 1

 k-point     1 :       0.0000    0.0000    0.0000
  band No.  band energies     occupation
      1      -3.0141      1.00000
      2      -2.5563      1.00000
      3      -0.2831      1.00000
      4       0.7078      1.00000
      5       0.7078      1.00000
      6       0.7087      1.00000
      7       0.7087      1.00000
      8       0.7396      1.00000
      9       1.4099      1.00000
     10       1.4099      1.00000
     11       1.4127      1.00000
     12       1.4127      1.00000
     13       2.1439      1.00000
     14       6.4146      0.00000
     15      10.8506      0.00000
     16      18.8016      0.00000

[...]

 k-point    21 :       0.3333    0.3333    0.5000
  band No.  band energies     occupation
      1       0.1960      1.00000
      2       0.1960      1.00000
      3       0.1972      1.00000
      4       0.1972      1.00000
      5       0.4516      1.00000
      6       0.4516      1.00000
      7       0.4548      1.00000
      8       0.4549      1.00000
      9       0.9753      1.00000
     10       0.9753      1.00000
     11       9.9847      0.00000
     12       9.9847      0.00000
     13      10.0627      0.00000
     14      10.0627      0.00000
     15      11.6085      0.00000
     16      11.6085      0.00000
 Fermi energy:         3.0181937008

 spin component 2

[...]

 k-point    21 :       0.3333    0.3333    0.5000
  band No.  band energies     occupation
      1       1.9290      1.00000
      2       1.9290      1.00000
      3       1.9326      1.00000
      4       1.9326      1.00000
      5       2.3226      1.00000
      6       2.3226      1.00000
      7       2.3352      1.00000
      8       2.3352      1.00000
      9       3.3079      0.00000
     10       3.3079      0.00000
     11      10.5391      0.00000
     12      10.5391      0.00000
     13      10.6187      0.00000
     14      10.6187      0.00000
     15      12.2850      0.00000
     16      12.2850      0.00000

 soft charge-density along one line, spin component           1
         0         1         2         3         4         5         6         7         8         9
 total charge-density along one line

 soft charge-density along one line, spin component           2
         0         1         2         3         4         5         6         7         8         9
 total charge-density along one line

------------------------ aborting loop because EDIFF is reached ----------------------------------------

  FORCE on cell =-STRESS in cart. coord.  units (eV):
  Direction    XX          YY          ZZ          XY          YZ          ZX
  Alpha Z    39.63868    39.63868    39.63868
  Ewald     -59.61202   -59.61202  -935.34508    -0.00000     0.00000     0.00000
  Hartree   384.87005   384.87005  -203.35768    -0.00000    -0.00000    -0.00000
  E(xc)     -91.02833   -91.02833   -91.12603     0.00000    -0.00000    -0.00000
  Local    -727.11645  -727.11657   747.45288    -0.00010     0.00000    -0.00000
  n-local    -8.78506    -8.67282   -14.44602    -9.35716     0.00970    -0.01653
  augment   314.05755   314.05767   307.99132     0.00010    -0.00000    -0.00000
  Kinetic   148.93302   140.89913   147.94571    10.44673     0.02828     0.03692
  Fock        0.00000     0.00000     0.00000     0.00000     0.00000     0.00000
  Total      -3.00338    -3.00338    -1.24623    -0.00000     0.00000     0.00000
  in kB    -112.57667  -112.57667   -46.71267    -0.00000     0.00000     0.00000

 VOLUME and BASIS-vectors are now :
  energy-cutoff  :      400.00
  volume of cell :       42.74
      direct lattice vectors                 reciprocal lattice vectors
     2.470000000  0.000000000  0.000000000     0.404858300  0.233745048  0.000000000
    -1.235000000  2.139082747  0.000000000     0.000000000  0.467490097  0.000000000
     0.000000000  0.000000000  8.090000000     0.000000000  0.000000000  0.123609394

  length of vectors
     2.470000000  2.470000000  8.090000000     0.467490097  0.467490097  0.123609394

 FORCES acting on ions
    electron-ion (+dipol)            ewald-force                    non-local-force                 convergence-correction
   -.484E-05 0.280E-05 0.922E-14   -.208E-13 0.254E-14 -.503E-13   0.271E-19 0.000E+00 0.000E+00   0.402E-10 -.232E-10 -.878E-13
   -.386E-05 0.223E-05 -.656E-12   -.268E-13 0.108E-13 0.503E-13   0.108E-18 0.000E+00 0.000E+00   -.457E-10 0.264E-10 0.180E-12
   -.870E-05 0.502E-05 -.646E-12   -.476E-13 0.133E-13 0.000E+00   0.136E-18 0.000E+00 0.000E+00   -.546E-11 0.317E-11 0.926E-13

 POSITION                                       TOTAL-FORCE (eV/Angst)
      0.00000      0.00000      0.00000        -0.000000      0.000000      0.000000
      0.00000      1.42606      4.04500         0.000000     -0.000000      0.000000
    total drift:                               -0.000009      0.000005     -0.000000

  FREE ENERGIE OF THE ION-ELECTRON SYSTEM (eV)
  free  energy   TOTEN  =       -11.24050497 eV

  energy  without entropy=      -11.23470349  energy(sigma->0) =      -11.23760423